108
Lattice="8.443 0.0 0.0 0.0 9.749 0.0 0.0 0.0 34.79458282" Properties=species:S:1:pos:R:3:forces:R:3 bias_charge=-1.0 work_function=3.8336630956457647 energy=-592.7707725288635 pbc="T T F"
Pt       7.03577500       5.77911800       6.50000000      -0.04619179      -0.00565384       0.16194303
Pt       1.40711200       5.77911700       6.50000400       0.01394090       0.00698129       0.06890572
Pt       7.03577500       0.90461600       6.50000500       0.03838717       0.00013733       0.00481484
Pt       4.22144400       5.77912000       6.50000600      -0.06072045       0.02291664       0.04938925
Pt       5.62860700       8.21637200       6.50000900       0.03794579      -0.00144070       0.10164187
Pt       1.40711200       0.90461500       6.50000900      -0.07543643       0.07472070       0.18527101
Pt       8.44294300       8.21637100       6.50001100      -0.04002343       0.04348555       0.14435929
Pt       4.22144300       0.90461400       6.50001200       0.06274051      -0.01141738       0.10414536
Pt       2.81428000       8.21637000       6.50001200       0.01936681      -0.07232752       0.12133566
Pt       5.62860600       3.34186500       6.50001600      -0.04886644       0.00451045       0.07107547
Pt       8.44294300       3.34186800       6.50001800       0.01823688       0.00941296       0.09092421
Pt       2.81428000       3.34186700       6.50001900      -0.05172273       0.02354670       0.11012822
Pt       2.81428000       6.40710800       8.77208900      -0.15350083       0.27542801      -0.43776355
Pt       8.44294300       6.40710800       8.77208900       0.02619450      -0.01387172       0.09262937
Pt       5.62860600       6.40711000       8.77209100       0.46878210       0.03824081      -0.55478780
Pt       2.81428000       1.53260500       8.77209500       0.11574347      -0.08813818      -0.18968458
Pt       8.44294300       1.53260400       8.77209600       0.40858957      -0.32104570      -0.42980477
Pt       4.22144300       8.84436100       8.77209600      -0.38114718       0.28408870      -0.01371723
Pt       5.62860700       1.53260300       8.77209800      -0.55757422       0.13022151       0.19039874
Pt       1.40711200       8.84436000       8.77209800       0.10005760      -0.02675680       0.22304730
Pt       4.22144400       3.96985500       8.77210100       0.41663099      -0.18870407      -0.17581306
Pt       7.03577500       8.84436000       8.77210200       0.19136620      -0.06985230      -0.16575873
Pt       1.40711200       3.96985800       8.77210300      -0.17109738      -0.17960495      -0.08250833
Pt       7.03577500       3.96985700       8.77210700       0.09631431       0.00535806      -0.43436204
Pt       4.29879320       7.03226136      10.95824899      -0.53806440       0.13797378       0.56148972
Pt       5.72109226       4.67340922      10.99097705      -0.53054948      -0.51698679       0.39548495
Pt       1.41152525       2.08322319      11.06701458      -0.42356366       0.35167541      -0.23962065
Pt       8.39814795       9.38130464      11.08750736       0.59116066       0.16878313      -0.17503988
Pt       7.03630896       7.08885996      11.08323121       0.30314942      -0.09932139      -0.14873738
Pt       4.06100099       2.26625808      11.12056501       1.13612763      -0.22731253      -0.34652297
Pt       2.84443219       4.68680585      10.93108579      -0.20817410      -0.21350989       0.68791108
Pt       1.46071306       7.00311122      11.06796729      -0.32797269       0.31204794      -0.20188551
Pt       5.63499439       9.46720504      11.00399070      -0.27846635       0.14352140       0.20391131
Pt       2.80416991       9.51895174      11.10504919       0.10425522      -0.18303130      -0.60771735
Pt       7.10737005       2.11000269      10.92574922      -0.63893578       0.39717863       0.58412887
Pt       0.00377390       4.56694780      11.03877720       0.30392854       0.07181777       0.01240485
O        3.51497031       8.87163661      14.20920833      -0.08050511      -1.19244971      -1.77877056
H        4.24263146       8.90856357      13.50255575      -1.02885320      -0.04323643       0.77736649
H        2.87608683       8.10019804      13.93413610       1.07717221       0.87115361       0.32118797
O        2.82069633       8.80844346      16.67464531       0.27107532       0.25317567       0.88710293
H        3.34461895       9.39312136      17.35919832      -0.67675416      -0.39879879      -0.97315613
H        3.14206648       8.92627048      15.72948031       0.16186164       0.37404906       0.88593748
O        7.41484657       8.70027980      20.82058282       0.32018580       0.41765603      -1.92827759
H        7.58405833       9.40821200      20.10740529      -0.15539827      -0.30276402       1.13233029
H        6.95054393       8.07097448      20.21349455      -0.24906598       0.07523739       0.64284511
O        7.50862678       3.51493372      16.71093166       0.60355705       0.17372399      -0.51979114
H        8.31208193       3.39587599      16.13339540      -0.65161793       0.20634513       0.22938749
H        7.39206104       4.50155508      16.73501260       0.02424387      -0.49200232       0.19344985
O        7.82072672       9.10442455      14.75776145      -1.00525399       0.31297850       0.37050621
H        8.38997689       0.09831578      14.43324007      -0.15165961      -0.08412015      -0.04641302
H        6.91384043       9.47913787      14.95278547       1.03489640      -0.03497322      -0.37045174
O        2.11210713       3.84712465      19.81735826      -0.54101352       0.87350919       1.02479215
H        3.09751635       3.92042661      19.78973439       0.11291680       0.51683352      -0.25881028
H        1.68977124       4.75259071      19.94295996       0.64457855      -0.84209878      -0.24628372
O        4.54607150       3.93544504      18.89005702       1.12965890       0.59753907       0.34776889
H        4.50709306       4.81903902      18.46611059      -0.48935844      -0.09194835      -0.29841212
H        5.46373311       4.03094777      19.29469771      -0.27737242      -0.40808221      -0.07217878
O        4.79261661       7.77897278      19.67621019       0.20371973      -0.31504859       0.27683050
H        4.28453539       8.60622818      19.62470216       0.04218285       0.47135494      -0.21891709
H        4.58508185       7.33891470      18.83199123      -0.12425201      -0.25905923      -0.05873117
O        7.21319422       6.17284479      17.76053808      -1.37731332      -1.00810624      -0.38697409
H        6.31744777       6.43913255      17.41554197       0.34631486       0.00630962       0.06810649
H        7.85508764       6.88118457      17.60640131       0.40793244       1.34723067      -0.38359338
O        5.68932622       1.32594332      16.63855543       0.29887381      -0.13145652       0.08557781
H        4.89179846       1.67385147      16.18988107      -0.33333151      -0.02543892      -0.09606762
H        6.32376547       2.07062606      16.54472447       0.06695965       0.26282373      -0.07461413
O        1.63922750       1.05325216      13.94465661      -0.83955161       0.91639363       0.51555966
H        2.23903224       0.28015858      13.96013779       0.74762128      -0.08026073      -0.48900514
H        1.87193851       1.65517808      13.16873937      -0.07031785      -0.77309935       0.29225685
O        0.09531860       8.40294962      17.45481823       1.78799696       1.05742006      -1.17219423
H        7.97390088       8.74072492      16.69065358       0.97985776      -0.20064747       0.65123984
H        1.09151529       8.73079819      17.20245189      -2.04027238      -0.90107787       0.34334242
O        1.24526455       6.49898376      19.79695364       0.28772706      -2.42965448      -3.44026586
H        0.82982861       7.28040837      20.05222865      -1.42554722       2.81109662       1.52589594
H        0.83330183       6.44463337      18.85046797       1.24710180      -0.19069590       2.04665914
O        3.25876922       4.83885350      15.38240352       0.52966394      -0.41223640      -0.87087752
H        2.69654749       5.47941959      14.87829365      -0.29395207      -0.14923094       0.04950690
H        3.77962187       4.35415145      14.68010695       0.26580728       0.49294055       0.50999792
O        4.31791710       6.48262408      17.11942561       1.26448336      -0.38436320       1.13643899
H        4.01283048       5.86664112      16.40894372      -0.18996742      -0.14856456      -0.42355093
H        4.15493733       7.39931108      16.85542599      -0.71834570       0.41340633      -0.39631578
O        2.82672122       2.20870738      16.06356956      -0.06274485       0.38004928      -0.75161969
H        3.02256761       3.17376192      15.85224690      -0.58209801      -0.79754889       0.37553425
H        2.35899222       1.84724839      15.22619170       0.37485385       0.27881485       0.82439477
O        1.69142444       6.86349587      14.33611899       1.21968831       1.07853734       2.32220279
H        1.24230423       7.12958815      15.19215292       0.30347936      -0.28800773      -1.08022908
H        1.03738885       6.56358906      13.72542845      -1.32700274      -0.48809481      -1.18561401
O        0.39152801       4.18695033      14.36822557      -0.65627035       1.00553667      -1.07043903
H        8.20853069       4.97969874      14.19190741       0.54990366      -1.02464869       0.48685307
H        0.73720156       4.01847563      13.44792016      -0.19144620      -0.13010514       0.53212628
O        7.47051320       1.49551314      19.23011617       0.48755870       0.12908548      -1.24708547
H        6.91716338       1.54602907      18.40803920       0.00688202      -0.23480019       0.72286505
H        8.38661507       1.60193651      18.81074283      -0.29863200      -0.15681229       0.61796198
O        6.97878424       6.36918327      14.33547538       0.80315552       0.50298659       0.47101949
H        6.54930337       6.36920454      13.46626468      -0.40492472      -0.16405793      -0.68556860
H        7.44960402       7.24762043      14.31587326      -0.42928926      -0.24001282       0.15932403
O        7.24776128       4.46787064      19.65107205      -0.82020463       0.32296521       1.04507133
H        7.18697599       5.18794214      18.97068092       0.28804023       0.00459101      -0.06830903
H        7.58710849       3.69865179      19.19168411       0.27696307      -0.81470927      -0.43376408
O        1.69438521       1.79387237      18.49301998      -0.17044040      -0.17569920      -0.92109069
H        1.98028744       1.91811956      17.53410932      -0.25377092       0.05887211      -0.06648197
H        1.99100941       2.64928004      18.91686782      -0.83802123       0.45830347       0.19865429
O        3.83788063       0.54577369      18.67585021       1.08797184       0.41925002      -0.14846988
H        3.03547975       1.15475214      18.69000753      -0.56190742      -0.58438917       0.27569546
H        4.49983801       1.16948074      18.27288537       0.11691002      -0.77858974       0.05288569
O        5.44897079       3.22209552      14.18790419       0.80475102       0.62406817      -0.06643833
H        5.29453804       3.31779321      13.16959798       1.17699012       0.05105280       1.66770757
H        6.37120558       3.53838531      14.56246587      -2.10031449      -0.60832654      -1.68581724
108
Lattice="8.443 0.0 0.0 0.0 9.749 0.0 0.0 0.0 35.18249421" Properties=species:S:1:pos:R:3:forces:R:3 bias_charge=-1.0 work_function=3.7136704673734524 energy=-592.7487122850297 pbc="T T F"
Pt       7.03577500       5.77911800       6.50000000       0.08353510      -0.00561065       0.06490202
Pt       1.40711200       5.77911700       6.50000400      -0.01265933      -0.01466650       0.10586158
Pt       7.03577500       0.90461600       6.50000500       0.01330214       0.00595376       0.07188456
Pt       4.22144400       5.77912000       6.50000600      -0.00368616      -0.03896751       0.13369763
Pt       5.62860700       8.21637200       6.50000900       0.07664649       0.02198767       0.14542918
Pt       1.40711200       0.90461500       6.50000900       0.03966768      -0.05632570       0.09861475
Pt       8.44294300       8.21637100       6.50001100      -0.04136788      -0.02906958      -0.00232451
Pt       4.22144300       0.90461400       6.50001200       0.01704749       0.01468551       0.11304361
Pt       2.81428000       8.21637000       6.50001200      -0.03035779       0.06228307       0.20463310
Pt       5.62860600       3.34186500       6.50001600       0.01750483      -0.01796394       0.04147485
Pt       8.44294300       3.34186800       6.50001800      -0.10037021       0.00648137       0.14975815
Pt       2.81428000       3.34186700       6.50001900       0.08995384       0.02501704       0.14034461
Pt       2.81428000       6.40710800       8.77208900       0.34088072      -0.15619556      -0.37893083
Pt       8.44294300       6.40710800       8.77208900      -0.47051990      -0.39476592      -0.19914822
Pt       5.62860600       6.40711000       8.77209100      -0.18283141       0.09289715      -0.45417580
Pt       2.81428000       1.53260500       8.77209500      -0.00853415      -0.24509641      -0.04784648
Pt       8.44294300       1.53260400       8.77209600       0.05142018       0.18352547      -0.71577943
Pt       4.22144300       8.84436100       8.77209600      -0.33556904       0.08518986      -0.30688569
Pt       5.62860700       1.53260300       8.77209800      -0.25975349      -0.31884510      -0.26606713
Pt       1.40711200       8.84436000       8.77209800       0.78295499      -0.01557668      -0.53658895
Pt       4.22144400       3.96985500       8.77210100      -0.51269574       0.02798600      -0.07531356
Pt       7.03577500       8.84436000       8.77210200      -0.42387701      -0.08562350       0.03467832
Pt       1.40711200       3.96985800       8.77210300      -0.00046116       0.17333452      -0.06272950
Pt       7.03577500       3.96985700       8.77210700       0.42933941       0.09666652      -0.19714734
Pt       4.21772504       7.07560197      11.02390357      -0.26705441      -0.27830463       0.08163786
Pt       5.62620612       4.59302811      10.94994186      -0.11333340       0.07168424       0.49162360
Pt       1.37449479       2.19748668      10.97615375       0.55312833      -0.31142047       0.45152692
Pt       0.04787593       9.49445739      10.88746616      -0.48354049       0.08894480       0.98233535
Pt       6.97769860       7.00524535      11.01938820       0.51008221       0.10340467       0.08091413
Pt       4.20381076       2.20631470      11.00192731      -0.21920087      -0.22893779      -0.05747538
Pt       2.78508707       4.74086510      11.12172043       0.09205232      -0.61199824      -0.40902317
Pt       1.36843620       6.99368022      10.90623560      -0.11164249       0.21759234       0.85511424
Pt       5.52527802       9.38766257      11.07982584       0.79926499       0.39550151      -0.37726648
Pt       2.81797023       9.46079178      11.17514846      -0.26757220       0.27855137      -0.42529420
Pt       7.00795963       2.11971550      10.94354572      -0.03331900      -0.06934861       0.65889710
Pt       8.42963972       4.45876457      11.16915163      -0.03487503       0.68261400      -0.48304336
O        1.91704857       7.37616030      20.95213414       0.56324914      -0.00902794       0.07949347
H        2.22434995       6.44832940      21.06656268      -0.13549003      -0.03842961      -0.22787278
H        2.76324534       7.87753885      20.76566071      -0.56251011       0.10209013       0.21728703
O        7.70031060       1.17345380      21.06062499      -0.00616227      -0.15216542      -0.12236838
H        7.79251864       0.39918687      20.46379256       0.09945736      -0.35800793      -0.24061631
H        6.73748733       1.35678153      21.06758028       0.07995531       0.35683540       0.00117777
O        4.14729642       7.46337201      17.15835632       0.00937568       0.59197111      -0.84940362
H        4.78991364       7.65471665      16.33184666      -1.82645158      -0.03488705       1.07324266
H        3.23930493       7.95046006      17.07103832       1.65731557      -0.58421350      -0.08214958
O        4.96748250       0.47805164      13.91858033       0.64848681      -0.11923753      -0.12297849
H        4.40292289       0.44757357      13.07601928       0.61059162       0.22625234       0.47703238
H        5.93393880       0.58674223      13.64101561      -1.02557108      -0.18853930       0.09750472
O        1.42537583       2.55787154      19.54049367      -2.72343015       0.08379759      -0.69943741
H        0.97535797       3.22237301      18.76830933       0.85928604      -1.17500095       1.35126957
H        0.57567377       2.06457062      19.91496459       1.96021017       1.12191865      -0.50527853
O        0.54503408       5.27670568      14.33114794      -2.75253277       0.66809631      -1.29853572
H        1.47942656       5.17608670      14.28618312       2.10454257      -0.07409342       0.12316761
H        0.30850684       5.45695860      13.34988378       0.37931695      -0.30189759       1.17926175
O        6.44387003       4.43431105      16.57543768       0.45806138       2.10837918      -1.16731549
H        6.48967440       5.44131253      16.39796997      -0.19625414      -1.73062852       0.70027583
H        6.58039669       4.14334522      15.63196916      -0.35106912      -0.41186525       0.40579362
O        1.42966862       8.77910064      17.13966913      -1.04925932       0.19094324      -1.20854603
H        1.46556637       0.02306967      17.00249678       0.42416786      -0.27984383      -0.28803676
H        0.72400771       8.53745766      16.41142111       1.04741311      -0.15044533       1.31787551
O        5.84540465       7.22900693      19.59264840      -1.82074657      -1.50452070      -0.92473801
H        5.45849803       6.99963306      18.69224721      -0.67370895       0.35945264       1.03518012
H        6.62733978       7.63503989      19.25012536       2.42328686       1.30271084       0.03973671
O        2.90917229       5.13673620      17.11101114       0.59902024       0.32602916       0.11463864
H        3.34487789       4.39272373      17.54671477       0.35288811      -0.28277878      -0.02408698
H        3.56532320       5.92826035      17.18161823      -0.83391385      -0.21637301      -0.08582776
O        6.94315789       4.62592230      20.29217194       1.39287354       0.03166280      -0.61499718
H        6.40707227       5.39768799      20.06790147      -0.50878468       0.94103422      -0.07281242
H        7.68165938       4.70798186      19.63235002      -0.29627358      -0.33758139       0.25841097
O        7.94250663       7.83132512      15.44665519      -1.54268661      -0.51913494      -1.36086454
H        6.96950558       7.76982219      15.00818029       1.31153570       0.49268798       1.13139090
H        8.33302732       7.04854175      14.98927511       0.59760950      -0.05316695       0.21686813
O        0.55288221       4.34906570      17.89944988      -0.03063649       0.43092122       0.04743001
H        1.45858166       4.75570474      17.66230706      -0.62028933       0.12600815      -0.28012789
H        8.38077039       4.45025992      17.12546415       0.28478810      -0.32008852       0.52194559
O        1.23596986       1.64047648      16.29126744      -1.38983977      -0.51319307      -2.03758300
H        0.66122794       1.71040350      17.03856456      -0.54622698       0.65640686       1.79045412
H        0.45805309       1.50703411      15.59950823       1.91746825       0.14760577       0.31409392
O        8.34814765       8.55893150      19.27833394       0.47768704       0.50812545      -0.12388337
H        0.53581415       8.23931610      19.96907901      -0.05476422      -0.32623545      -0.24971143
H        0.53281519       8.71003324      18.46302907      -0.68499020      -0.37406112       0.63569465
O        8.13082791       0.68286126      14.21122559       0.11604266       0.53004426      -0.95667107
H        8.41594378       9.57135912      14.65132899      -0.26389300       0.35958509      -1.41898125
H        0.01331449       0.86323793      13.22867529      -0.26676029      -1.02680220       2.16608501
O        3.93016384       1.42251373      19.16843796      -0.42991699       0.14417859       2.51476785
H        4.07562479       1.47071978      18.24160079       0.71865193      -0.13188483      -2.56059169
H        3.03097576       1.81636756      19.29633433      -0.42833645      -0.12458243       0.05347631
O        5.23681428       2.94238137      21.02626977      -1.32445456      -1.66341690      -0.58087883
H        5.92788416       3.44252113      20.54627398       0.60558506       0.56816160      -0.07888702
H        4.82026913       2.36957182      20.28104234       0.28171575       0.61657237       0.78329794
O        5.39363625       7.69729308      14.82237571      -0.73801067       0.32607871      -0.95705663
H        5.07316891       8.55797622      14.33933361       0.50818025      -0.80412719       0.71983272
H        4.81978832       6.94672636      14.43680269       0.19387810       0.59494139       0.17103547
O        2.86975509       4.50571842      21.20849421       0.48242828      -0.50556828      -0.25206283
H        2.46814266       3.88648203      20.55486690      -0.75766377       0.17245140       0.03433120
H        3.76399456       4.06574182      21.22642135       0.14810944       0.34666296       0.28087822
O        4.71194594       1.66965830      16.54684509      -0.47970590      -1.13279548      -0.00540662
H        5.20198228       2.47757457      16.51595739       0.76240062       1.36343357      -0.01464085
H        4.83439647       1.27772632      15.65259659      -0.31379953      -0.04564784       0.05086323
O        6.10122775       3.65297502      13.81999494      -1.14144132      -2.21372330      -0.06817977
H        6.92354116       4.12594172      13.71718611       1.24157219       0.19519533      -0.65523084
H        6.21367353       2.71292745      13.37804039       0.03928851       2.28691188       0.79781329
O        4.12596905       9.04989518      20.99744083       1.37857776      -0.27424628      -1.01255367
H        4.77022990       8.36325569      20.60544780      -0.64971691       0.76096248       0.32091300
H        4.28647364       0.07617522      20.37104364      -0.64277016      -0.70195155       0.32647805
O        3.46326696       5.89484794      14.14482493       1.12233537      -2.17518947       1.23792349
H        3.87117999       5.02809560      14.53605934      -0.90337232       1.77478539      -0.55909253
H        3.45967541       5.64870611      13.19217039      -0.03066228       0.18395869      -0.64430686
108
Lattice="8.443 0.0 0.0 0.0 9.749 0.0 0.0 0.0 35.096270790000005" Properties=species:S:1:pos:R:3:forces:R:3 bias_charge=-1.0 work_function=3.633561197073879 energy=-592.6993782843078 pbc="T T F"
Pt       7.03577500       5.77911800       6.50000000       0.03948634      -0.01620368       0.04869280
Pt       1.40711200       5.77911700       6.50000400       0.02131114       0.03005415       0.06505727
Pt       7.03577500       0.90461600       6.50000500       0.03833193       0.01904105       0.04770596
Pt       4.22144400       5.77912000       6.50000600       0.02200809      -0.00019758       0.15849143
Pt       5.62860700       8.21637200       6.50000900      -0.01489711       0.01377282       0.10658175
Pt       1.40711200       0.90461500       6.50000900      -0.00474632       0.07131286       0.07177132
Pt       8.44294300       8.21637100       6.50001100       0.05329133      -0.01157508       0.11151206
Pt       4.22144300       0.90461400       6.50001200      -0.01587806      -0.01047791       0.09674228
Pt       2.81428000       8.21637000       6.50001200       0.01235061       0.05327769       0.16364508
Pt       5.62860600       3.34186500       6.50001600       0.13972584       0.02401296       0.05432733
Pt       8.44294300       3.34186800       6.50001800       0.01188064      -0.03853671      -0.00978620
Pt       2.81428000       3.34186700       6.50001900       0.02952079       0.01203451       0.15983564
Pt       2.81428000       6.40710800       8.77208900       0.08263808      -0.29951148       0.15085822
Pt       8.44294300       6.40710800       8.77208900       0.06632956       0.10036209      -0.15736833
Pt       5.62860600       6.40711000       8.77209100      -0.43442266      -0.15940093      -0.10539225
Pt       2.81428000       1.53260500       8.77209500      -0.01480610      -0.17404219      -0.30401416
Pt       8.44294300       1.53260400       8.77209600      -0.04997294      -0.18978879      -0.22007976
Pt       4.22144300       8.84436100       8.77209600       0.15527708      -0.05960519       0.10338065
Pt       5.62860700       1.53260300       8.77209800      -0.20707069      -0.13430724       0.10214139
Pt       1.40711200       8.84436000       8.77209800       0.05682824      -0.24477386       0.02649453
Pt       4.22144400       3.96985500       8.77210100      -0.37148557       0.15329384      -0.17687177
Pt       7.03577500       8.84436000       8.77210200      -0.19351723       0.01735932       0.07708246
Pt       1.40711200       3.96985800       8.77210300       0.41127490      -0.13713441       0.11176003
Pt       7.03577500       3.96985700       8.77210700      -0.58991476       0.12926845      -0.28305969
Pt       4.18988561       7.05452499      11.10137888      -0.08657077      -0.22505742      -0.26419890
Pt       5.48324558       4.51315872      11.11608480       0.50895177       0.19240271      -0.19417696
Pt       1.38121323       1.97325374      11.04305014      -0.02018971       0.21673679       0.09427976
Pt       0.01232605       9.33413824      11.02899346      -0.21488918       0.28394385       0.04727534
Pt       6.96992066       6.92342137      11.00346288       0.28523302       0.15609201       0.17805264
Pt       4.11968988       2.21864465      11.00904294       0.40529743      -0.47321705       0.10545785
Pt       2.73955839       4.51750689      11.21698163       0.04451508       0.21146506      -0.55180379
Pt       1.38403782       6.86800313      11.08623041      -0.02223038       0.24074506      -0.12354660
Pt       5.61558762       9.44300478      11.10778725      -0.12536813       0.10686002      -0.86917106
Pt       2.78556234       9.36658595      11.06055803       0.14158876       0.12269492      -0.05660475
Pt       7.06117305       2.21343813      10.97814075      -0.39433579      -0.47493780       0.31735277
Pt       8.38581163       4.56419831      10.95313481       0.21995406       0.41505464       0.37634603
O        4.08480210       1.96674124      19.64271710       0.25938177       2.13674034       0.99888668
H        4.49027742       1.18572066      19.28886569       0.68358983      -0.87305393      -0.34057225
H        4.81084588       2.64816999      19.89697067      -1.03079764      -1.41552631      -0.12314373
O        1.17250365       4.59272285      20.49433663       0.06423190      -0.05813215       0.39199619
H        1.17378102       3.98826470      19.69638091       0.28387611       0.09940078       0.02855160
H        0.35659169       5.11208257      20.42675353      -0.07243904       0.50884262       0.00881789
O        5.92517711       1.30177298      17.30526902       1.68986830      -1.67638478      -1.73063812
H        5.31724219       1.96418505      17.54838554      -1.95364759       1.78970307       0.36855447
H        5.99367912       1.41449901      16.30868000       0.53677271      -0.09850801       0.86976851
O        6.38829896       8.53257154      13.81031244       2.13392710      -1.76198475       1.00589614
H        5.73426244       8.34590533      13.11496951      -0.56536144      -0.11298532      -0.78791642
H        7.12432779       7.83130132      13.61858932      -1.55530537       1.49796705       0.13192202
O        4.00666459       5.30765075      19.85709943       1.29343402       0.31668020      -0.39032404
H        4.22559814       6.27890579      19.90688830       0.56767026      -0.17438500       0.03948732
H        3.17379643       5.25961957      20.31907397      -1.54447502      -0.50336567       0.23652608
O        6.86143621       1.35416396      14.38695949       1.18652429       0.63127974      -0.82713481
H        6.94289178       0.45365417      13.98691620      -0.41480162      -0.01995468       0.22773401
H        7.64467201       1.82613055      13.95074436      -1.19961510      -0.31987132       0.89721503
O        0.52979043       6.68833296      17.24554753       0.27311640       0.67898119       1.41115027
H        0.28917859       6.94965994      16.34982891      -0.04697093       0.11132027      -0.62903693
H        0.36472233       5.72383799      17.30909951      -0.14041209      -0.46646260      -0.48848770
O        3.53422997       2.64525792      16.81046922       0.34258050       1.06287927      -0.72176859
H        4.13274269       3.46423474      16.74370128      -0.70427010      -0.65715864       0.19775124
H        3.36551621       2.47250728      15.84485192       0.12610309      -0.20920137       0.25796154
O        7.66825428       1.88695180      19.41285040      -0.18913266      -0.24588461      -1.88535576
H        7.04392371       1.51175841      18.70966152       0.29789812       0.24649949       0.81415558
H        8.36871431       2.18397825      18.74157889      -0.07123950       0.07356862       1.23686817
O        4.57677365       8.83457193      17.90132727      -0.91620533      -1.77346089       1.00116013
H        4.71626826       8.19359096      17.17164864      -0.13652472      -0.99325053      -0.39799774
H        4.87099169       9.60175453      17.45393150       1.09457419       2.72860019      -0.68274148
O        0.52034508       9.35797015      20.57124844       0.61581988       1.07582620      -0.30262972
H        0.11049486       0.44777579      20.26882558      -1.07719348       0.25619912       0.16880336
H        1.30788943       9.43612335      19.92280835      -0.20133752      -1.09520866       0.79003700
O        3.62812755       1.93262885      14.16667643       1.42162151      -0.34022289       0.31969648
H        3.29880504       2.60355622      13.55328170      -0.46684467       0.38883274      -0.57778724
H        4.61077846       1.91093057      13.94706299      -0.85351178      -0.10406563       0.29185084
O        2.28164800       8.49584271      19.15241308       0.53888250      -0.09657761      -1.17353282
H        1.61073951       8.03656471      18.59934054       0.22989953      -0.14810042      -0.08275082
H        3.00480134       8.74335752      18.49588761      -0.20194683      -0.26730187       0.45797838
O        8.03442804       4.18942174      16.78276067      -0.67853475       0.52789655      -0.50666592
H        7.12419540       4.57638300      16.64908413       0.40416936      -0.61001372       0.74150906
H        8.25940622       4.05982122      15.83000894       0.25148652      -0.33494868       0.01347237
O        1.57248422       2.87386338      18.65225216       1.14845892      -0.94650236       0.31004577
H        2.39485471       2.44205414      19.05120303      -0.76591117       0.24900814       0.14169836
H        2.00575262       3.03074492      17.79138372      -0.03536756       0.30401618      -0.83222688
O        2.81787399       5.35346995      14.41752833      -0.99633486      -0.26720255      -0.21404398
H        3.17494554       5.40995983      13.50578390       0.20227710       0.01274925      -0.21352928
H        3.49076333       5.69583760      15.01424804       0.73366629       0.43359044       0.32495906
O        5.31216368       4.66616269      17.07097573      -0.24086510      -0.45178848       2.22585000
H        5.19645034       5.56813246      16.73068756      -0.42158376       0.54960485       0.10109147
H        5.09560765       4.67212869      18.09086849       0.24726427       0.54282693      -2.25798718
O        7.88944914       6.91801930      20.12920193      -0.62412935      -1.07801476      -0.28050951
H        8.41849114       7.70745349      20.27347760       0.62683517       1.61632441       0.85686907
H        8.03108413       6.85706320      19.17028330      -0.16491768      -0.44695211      -0.79110867
O        0.24688892       3.81049501      14.13656903      -0.57157825      -1.40001750       2.27692144
H        8.37712202       3.91088800      13.25715359      -0.77526854       0.38230383      -2.24224219
H        0.99170808       4.38237495      14.22599393       1.67864059       1.05424336      -0.05817027
O        5.27130723       7.63487326      20.27263846      -0.15348902       0.85114467      -0.38009975
H        6.26343347       7.51068601      20.28410693      -0.33705302      -0.19147916      -0.26793740
H        5.06860096       8.24081314      19.49496197       0.36291281      -0.60549090       0.49058137
O        4.71344773       7.30067067      15.64647907      -0.25686631       1.10979909      -0.87107000
H        5.52087579       7.49105213      15.10352558       0.30153563      -0.27119647       0.32452229
H        4.16905478       8.04431238      15.10931879      -0.20115856      -1.11754434       0.82935602
O        0.85697973       7.42900268      14.50535460       0.29348382       0.80224334       2.65019243
H        0.55826351       7.43918267      13.62949688      -1.00359824       0.04434188      -3.05760443
H        1.66513302       6.90860442      14.43252558       0.72235094      -1.21348468       0.19887590
O        6.04007081       3.71392835      21.12227079      -0.44062785       0.62120437      -0.61708604
H        6.73926921       3.63171135      20.42627343      -0.34715140      -0.10123532       0.31447462
H        5.42018508       4.46280594      20.84075478       0.57660811      -0.61787027      -0.01738756
O        3.29354422       8.92207620      14.14500559       0.95444937       1.14168590       0.40937676
H        3.16467456       0.13734807      14.37041641       0.37546633      -0.31566306      -0.42282397
H        2.39942937       8.58851269      14.09330824      -1.24406763      -0.52411594      -0.00386550
108
Lattice="8.443 0.0 0.0 0.0 9.749 0.0 0.0 0.0 34.39340531" Properties=species:S:1:pos:R:3:forces:R:3 bias_charge=-1.0 work_function=2.887922682249596 energy=-592.6387540058392 pbc="T T F"
Pt       7.03577500       5.77911800       6.50000000       0.02307211      -0.04915567       0.03023291
Pt       1.40711200       5.77911700       6.50000400      -0.00731808       0.03616627       0.13266279
Pt       7.03577500       0.90461600       6.50000500      -0.12616031       0.03066982       0.05130256
Pt       4.22144400       5.77912000       6.50000600      -0.02606227       0.00498566       0.13369949
Pt       5.62860700       8.21637200       6.50000900       0.01468937      -0.00497450       0.17980357
Pt       1.40711200       0.90461500       6.50000900       0.02233570      -0.01778945       0.17483601
Pt       8.44294300       8.21637100       6.50001100       0.10855771      -0.05336475       0.06785642
Pt       4.22144300       0.90461400       6.50001200       0.11350675       0.03189644       0.07629798
Pt       2.81428000       8.21637000       6.50001200       0.02653782       0.00062593       0.09875789
Pt       5.62860600       3.34186500       6.50001600       0.09080879      -0.00869314       0.01630882
Pt       8.44294300       3.34186800       6.50001800      -0.00247688       0.00069247       0.12027421
Pt       2.81428000       3.34186700       6.50001900       0.04884654       0.00351082       0.16418208
Pt       2.81428000       6.40710800       8.77208900       0.07256434      -0.18853931       0.06150997
Pt       8.44294300       6.40710800       8.77208900      -0.05033810       0.28158526       0.13953009
Pt       5.62860600       6.40711000       8.77209100      -0.09656757       0.50081291      -0.26741743
Pt       2.81428000       1.53260500       8.77209500      -0.48235303       0.05441247       0.16709744
Pt       8.44294300       1.53260400       8.77209600       0.63396937       0.17388877      -0.05828928
Pt       4.22144300       8.84436100       8.77209600       0.06499416      -0.03017901       0.01147927
Pt       5.62860700       1.53260300       8.77209800      -0.11426150      -0.12844489       0.02689961
Pt       1.40711200       8.84436000       8.77209800      -0.24811024       0.18540661       0.15587518
Pt       4.22144400       3.96985500       8.77210100      -0.61051736      -0.20933343       0.07715735
Pt       7.03577500       8.84436000       8.77210200      -0.29403957      -0.10548814      -0.05189897
Pt       1.40711200       3.96985800       8.77210300       0.26363045      -0.14670556      -0.00391058
Pt       7.03577500       3.96985700       8.77210700      -0.12154683       0.04876753      -0.67848469
Pt       4.14736764       7.06145376      11.10749285       0.68436968      -0.19398591      -0.20058976
Pt       5.59274086       4.70515802      10.90795760      -0.30674877      -0.09916469       0.67761237
Pt       1.39628224       2.29801706      11.22056958      -0.07725512      -0.32805975      -0.57403788
Pt       8.30580781       9.57632970      11.00660651       0.88102753      -0.36389120       0.08807738
Pt       6.99655163       7.03986598      11.10120515       0.11848518       0.25184226      -0.46181245
Pt       4.22419164       1.99613260      11.06167756      -0.45451731       0.56297597      -0.12161663
Pt       2.74343645       4.60263733      11.12995064       0.36173101       0.08711000      -0.39101941
Pt       1.46020295       7.12629466      11.06686535      -1.01446243      -0.31096388      -0.38522274
Pt       5.58620091       9.46803590      11.09719655       0.03340571      -0.19214119      -0.15612580
Pt       2.78639034       9.40873802      11.05750351      -0.05231408       0.54972531      -0.15891875
Pt       7.02754837       2.23554988      10.98001367      -0.24573568      -0.14693206       0.35118672
Pt       8.36883418       4.63030930      10.96108767       0.69242680      -0.03895369       0.58063539
O        3.47560316       9.25932541      14.37653936       0.45588702       1.15939717       0.78302832
H        4.19292963       9.32634030      13.72917720       0.20685899       0.00738134      -0.35043671
H        3.20100887       8.31105419      14.42631500      -0.35923743      -0.55963470      -0.43300423
O        3.36990378       8.89158498      17.48511701      -0.03576389      -1.55164642      -1.36268696
H        3.28726034       9.59546338      18.09752254      -0.11861184       1.37500487       1.97165745
H        3.78077707       9.38343164      16.75638376       0.30873342      -0.16154304      -0.72860022
O        6.56573078       9.14927077      20.30539198      -0.78298130       0.32225587       0.22678752
H        7.00510838       0.14813457      19.84691446       0.19057578       0.06965570      -0.53746453
H        7.25597484       8.55736034      20.58767545       0.85156877      -0.51121325       0.13741655
O        7.74511462       3.04738656      16.53241856      -0.08786993      -2.57077972      -0.79091510
H        8.32246485       3.01518037      15.72375859      -0.23964582       0.62922087       0.34636885
H        7.53747018       3.93728398      16.77366145       0.21923228       1.97807697       0.33402580
O        7.61044231       9.42438338      15.11809772      -2.48965784      -0.60369672       1.32984723
H        8.19518376       0.41502026      14.94012079       0.62965891       1.06679507      -0.35838609
H        6.71745937       9.74495470      15.52598270       1.97941579      -0.30903407      -0.99189654
O        2.05149625       4.49435066      20.41940531       1.64231421      -1.49129806       1.76372543
H        3.05697197       4.49386997      20.55983292      -1.44066861      -0.06077415      -0.82266121
H        1.82318891       5.33628962      20.03242628      -0.33809013       1.67868404      -0.68935272
O        4.48865945       4.06574396      19.12018428      -1.76424823       2.03055729      -0.75934354
H        4.38602412       4.94551894      18.58927389       0.59754756      -1.75937407       0.56453348
H        5.43982727       3.88629182      19.20897847       1.01624651       0.06685151       0.15591612
O        4.38336626       7.42157068      20.24128699      -0.31871270      -2.64813866      -0.51571510
H        5.04346839       8.11385136      20.17535474       0.91709764       1.07910058      -0.29898832
H        4.79551511       6.62103070      19.77299709      -0.57702465       1.40394871       0.71392280
O        7.68779784       5.63051736      17.64123090      -1.26880679       0.74541823      -0.35325498
H        6.74936463       5.98976362      17.53096018       0.35857336      -0.41271779       0.08198314
H        8.17403797       6.33636865      17.15246071       0.48921902      -0.07719822       0.17808203
O        5.07673977       1.28258652      16.81733814       0.42438021      -0.13308551      -0.04188822
H        4.32683399       1.73240937      16.39075655      -0.75756178       0.03012390      -0.00369008
H        5.72380680       2.00328238      16.81954659       0.60843341       0.12500318      -0.01433246
O        1.52847011       1.25904158      14.46661968       0.24817263      -0.43432644      -0.97663161
H        2.36040440       0.61744567      14.36598481      -1.21451068       0.53964481      -0.29001092
H        1.27072976       1.59002591      13.53121190       0.67995585      -0.52093474       1.15803361
O        0.77847672       8.03098558      16.88225675      -0.27774529      -0.64789299       0.41202790
H        0.25063292       8.76677026      16.48170425       0.25885721      -0.21266454      -0.11167503
H        1.72658329       8.27206546      16.97488075       0.01272996       0.50915423      -0.12119738
O        1.69690975       7.02250849      19.66177562      -4.74154424      -0.72337291       0.38658004
H        1.16887477       7.32615910      18.87981572       0.97685587      -0.05397746       0.09925041
H        2.60275733       7.14793211      19.63149575       3.65241361       1.22186684      -0.67652317
O        3.60656504       4.83695379      15.61871240       1.55461929      -1.36432326       0.04653862
H        2.86794075       5.30317691      15.16995813       0.65679994      -0.02838277      -0.77241199
H        4.35240188       4.38964146      14.99865387      -1.80359836       1.03444317       0.20657142
O        4.93186366       6.32864607      17.27704898      -0.51212639       1.84324533       1.22443219
H        4.46452520       5.82819903      16.54932698      -0.44708883      -0.12213927      -0.26767947
H        4.40225958       7.19961431      17.44167740       1.02059601      -1.50107997      -0.47434402
O        2.44552952       2.46031370      16.61175386       0.88255109       0.52826333       1.06452354
H        2.89023119       3.35169868      16.45280831      -0.64385835      -0.63653612      -0.45251074
H        2.06829378       2.08224619      15.77857447      -0.19347549       0.35670018      -0.60336859
O        2.44667424       6.95745062      14.17318945       0.73640281      -0.16617994       2.50979791
H        1.52242754       7.00941943      14.51587866      -0.30415291      -0.09652695      -0.88209003
H        2.47034479       6.75595241      13.23889800      -0.39293151      -0.26703116      -1.42570212
O        0.52847486       4.04374401      14.18741148       0.39430986      -1.70429853      -0.21177353
H        0.36905172       4.98040217      14.35130167       0.09629045       0.72976004      -0.72365743
H        0.97394448       3.79700561      13.30359767      -0.68572459       1.04960000       1.08406703
O        7.81398788       1.42113176      18.71652405       0.33699305       0.13391228      -0.61755489
H        7.71990621       1.83518645      17.79096024       0.10393558      -0.38614963       0.71150207
H        0.36312399       1.65126493      18.92259004      -0.63029961      -0.03251635       0.13371231
O        8.23248127       6.78426197      14.13350290      -0.35598677       0.60837746      -0.07167661
H        8.08664338       6.70255662      13.14855112       0.06725513      -0.08012222       0.18553684
H        8.01158698       7.74198125      14.29343861      -0.12044382      -0.39038437       0.22391703
O        7.05273998       3.72230253      19.64254334      -0.32821270       1.63180780       0.56787222
H        7.38316208       4.50483160      19.10234444       0.16738975      -1.38673200       0.15324735
H        7.33189921       2.81645114      19.33712611       0.48765572       0.06195314      -0.59893643
O        1.73786777       2.27971735      19.20945386       0.05773256      -1.42184732      -0.78954546
H        1.94225264       2.35191396      18.21108682       0.27322937       0.37627764       0.49990735
H        1.72365930       3.16939857      19.64109384       0.19933897       0.62646624      -0.20027944
O        4.21257167       1.11209116      19.95019873      -1.57728223      -1.70627746       3.09179351
H        3.36688534       1.59770769      19.90573698       0.24263370       0.62474919      -1.21492338
H        4.88415631       1.27124649      19.33374004       1.04273857       1.09161062      -2.16469128
O        5.58350742       3.66116378      14.07620170      -2.82167305      -0.22057030      -0.53662641
H        5.70244129       3.62144610      13.08389505       0.45654258       0.16924983       0.72622167
H        6.35491942       3.74097615      14.59832920       2.23016901       0.08189565       0.29298487
108
Lattice="8.443 0.0 0.0 0.0 9.749 0.0 0.0 0.0 35.27256916" Properties=species:S:1:pos:R:3:forces:R:3 bias_charge=-0.9 work_function=4.819545294310771 energy=-593.3478509596453 pbc="T T F"
Pt       7.03577500       5.77911800       6.50000000      -0.05372374      -0.03740484       0.07260332
Pt       1.40711200       5.77911700       6.50000400       0.01264727       0.05557324       0.15576429
Pt       7.03577500       0.90461600       6.50000500       0.06398718      -0.00754663       0.16217521
Pt       4.22144400       5.77912000       6.50000600       0.02149349      -0.02075745       0.03735643
Pt       5.62860700       8.21637200       6.50000900       0.06591287       0.01216956       0.08901377
Pt       1.40711200       0.90461500       6.50000900       0.04241819       0.03139482       0.12993263
Pt       8.44294300       8.21637100       6.50001100       0.03918325      -0.02345009       0.09430790
Pt       4.22144300       0.90461400       6.50001200      -0.01463723      -0.00815245       0.12927806
Pt       2.81428000       8.21637000       6.50001200       0.02027624      -0.00431358       0.14608378
Pt       5.62860600       3.34186500       6.50001600      -0.00082087       0.09462634       0.13270517
Pt       8.44294300       3.34186800       6.50001800       0.02110403       0.00242946       0.13644407
Pt       2.81428000       3.34186700       6.50001900       0.05040215      -0.01479722       0.02765917
Pt       2.81428000       6.40710800       8.77208900      -0.45068606       0.04930597      -0.41313563
Pt       8.44294300       6.40710800       8.77208900       0.15088976       0.10047689       0.28368464
Pt       5.62860600       6.40711000       8.77209100       0.11951148       0.12428521       0.31958919
Pt       2.81428000       1.53260500       8.77209500      -0.05833839      -0.01549635       0.01897235
Pt       8.44294300       1.53260400       8.77209600      -0.25262747       0.09800802      -0.16798408
Pt       4.22144300       8.84436100       8.77209600      -0.03741980      -0.01101331      -0.34649532
Pt       5.62860700       1.53260300       8.77209800       0.08660907      -0.05122553       0.25084281
Pt       1.40711200       8.84436000       8.77209800      -0.00541648      -0.35360349       0.00601868
Pt       4.22144400       3.96985500       8.77210100       0.15147539      -0.35107766      -0.56998943
Pt       7.03577500       8.84436000       8.77210200      -0.29848510      -0.09791441       0.08136208
Pt       1.40711200       3.96985800       8.77210300      -0.30019642      -0.01612839       0.15690698
Pt       7.03577500       3.96985700       8.77210700       0.11094357      -0.31337306      -0.59617844
Pt       4.12662458       7.01989687      11.01626559       0.91709340       0.20472887       0.14089203
Pt       5.65028821       4.49835833      10.97610497      -0.61496479      -0.10993463       0.43866799
Pt       1.34543851       2.10800247      11.06413918       0.29948650       0.09668758      -0.07910778
Pt       0.00781003       9.45729361      10.97942759      -0.09078250      -0.15372993       0.23170409
Pt       7.03584162       7.10578558      11.12173290       0.03654225      -0.05672583      -0.49895112
Pt       4.14380449       2.08535154      11.07316848       0.33688277       0.35035082      -0.09258233
Pt       2.89009501       4.56478365      10.93711122      -0.55219391      -0.07997364       0.69372059
Pt       1.48159938       6.83750091      11.18916889      -1.06599420       0.12474513      -0.35497554
Pt       5.48575284       9.40894176      11.07708515       0.76099786      -0.07376326      -0.04832555
Pt       2.78171638       9.43331080      11.03196857      -0.29823440       0.01715011       0.10786702
Pt       7.05336400       2.03190099      11.11360877      -0.55351581       0.29136277      -0.31415442
Pt       8.26006783       4.58980354      11.04138952       1.27420752       0.25357596      -0.13217493
O        0.02664447       7.45484881      16.67219952       2.22869002       0.64071800      -2.12548531
H        7.67535100       7.24376992      17.11679037      -2.49094990      -0.84396986       1.56439012
H        8.22929778       7.93368392      15.82778573      -0.19705612      -0.48632642       0.23420115
O        4.82990866       4.98962789      18.03972261      -1.78238465      -0.44569037      -0.55840741
H        4.51529185       5.00146527      17.08918302       0.25931464       0.04070083       0.68340675
H        5.67312927       4.48775538      18.03582190       0.94736156      -0.31454858      -0.17146562
O        3.61921895       4.67006846      15.34903232      -0.29921193      -0.63900316       0.35799884
H        3.72860296       3.73932980      15.00046879       0.01058076       0.77052398      -0.17850097
H        4.09078315       5.34971989      14.82970114       0.71598527      -0.20497954      -0.57255937
O        6.22932859       1.57612461      19.25761668      -0.03432643       0.20506605      -0.38517786
H        5.62081661       1.91679955      19.96563139      -0.07128211      -0.03884554       0.36100162
H        5.66932621       0.88947895      18.81792487       0.51706738      -0.05685285      -0.21021992
O        2.07760886       8.56259818      14.74912818      -0.19055892      -1.85016190      -0.22252995
H        2.37292037       8.18233791      13.89742108       0.05509042      -0.13913810      -0.23105136
H        2.29369370       9.47318133      14.63795012       0.53806914       2.03992559      -0.06194599
O        6.82571918       7.86953993      20.91716337      -0.15975852       0.00636769       0.80992574
H        7.42475909       8.65003068      21.00540362       0.00451859       0.07640917      -0.32983906
H        6.77781206       7.65884603      19.96036878       0.10541035      -0.24857473      -0.38246474
O        0.97862987       9.35735472      18.01058251       0.72085505       0.96343619       0.80690103
H        1.46319474       0.32028470      17.53929316      -0.43521378       0.46040943      -0.34016386
H        0.77974611       8.62852353      17.38019448      -0.59113830      -0.47008306      -0.35107993
O        0.03707767       0.35573675      20.47283742       1.72209119      -1.98040582      -0.34531499
H        7.77448526       0.95878361      20.30472594      -1.47369367       1.05110415      -0.67947137
H        0.22810347       9.66587986      19.56611960      -0.10003024       0.96412489       1.03880084
O        3.17551272       8.05139499      18.62944658      -0.11635626       0.61050382      -0.18133993
H        2.92918001       7.20607258      18.18288874      -0.15530010       0.21942585       0.00676865
H        2.44175160       8.72886631      18.38284974       0.46466374      -1.32988147       0.50364070
O        1.88405739       1.95358557      16.62934357       2.49112520      -0.79926322       0.15891283
H        1.00990469       2.19309395      16.24473826      -0.32995236      -0.09730445      -0.20668857
H        2.63206041       1.91353596      15.93886723      -1.54285967       0.11656034       0.34284483
O        2.07529791       5.83718560      17.12329613       0.60008447      -0.43308945      -1.55518033
H        2.43938560       5.51750921      16.20475136      -0.69793066       0.26668759       1.75341350
H        1.21832596       6.30946670      16.97907245       0.06711566       0.34902694      -0.56621550
O        3.09584378       2.91137446      18.88496913       0.21630869      -0.37618283      -0.50171618
H        3.65720679       3.65089612      18.50626789       0.05202376      -0.24100569       0.17017254
H        2.78188637       2.35560014      18.10855173       0.00412629       0.58224519       0.24375849
O        0.66569419       4.08293700      13.97304763      -0.51756546      -0.58271934       0.54221794
H        8.42370039       4.18214466      13.26709385       0.16056367       0.14043453      -0.13491426
H        1.31496427       4.78022970      13.82732728       0.27769743       0.34666692      -0.15061695
O        7.88500480       8.84666348      14.36274956       1.46901317      -1.56168526      -1.51188651
H        0.45580241       8.60019410      14.24249682      -1.45092588       1.00507127       0.62124859
H        7.52579765       8.37671237      13.54848859      -0.08906293       0.44117009       0.76649103
O        4.38464385       1.91680959      21.12420649      -0.62160951      -1.34439364      -0.72809995
H        4.23824329       0.91694934      20.98545424       0.38248415       0.76282748       0.81514502
H        3.79066726       2.24369401      20.39622622       0.02634072       0.38652394       0.14828576
O        5.45149098       9.21429105      17.44822482       2.56520935       0.15966154       1.93362616
H        4.57904920       8.96694682      17.29236080      -3.15515046      -0.80344036      -0.31638077
H        5.76090191       0.04696670      16.74838701       0.32017180       0.83559744      -1.41501612
O        6.08266274       0.88204586      15.26173290       0.49375542       0.72862082       0.14111026
H        6.76969378       1.67884350      15.41092200      -0.80720968      -1.54241992      -0.13130854
H        6.62164031       0.11084607      14.92276537      -0.04377689       0.84452365      -0.01348467
O        7.18735570       3.88101080      18.08296526      -0.91887442      -1.45833283      -0.08604211
H        8.02601915       4.20006171      18.54862330       0.11622402      -0.44656549       0.37948244
H        6.83922882       2.96961662      18.45665186       0.91977039       1.15001503      -0.06736984
O        4.19657645       8.70895118      21.29856916       0.50850275       1.05384307       1.73645553
H        3.70969169       8.37483319      20.56198161      -0.73209374      -0.75243453      -1.73210525
H        5.10244816       8.32151206      21.25753630       0.30810076       0.01494414      -0.34493491
O        7.94253796       2.52381862      15.91829495       0.37483926       0.84877679      -0.95332514
H        8.31329269       3.17194705      15.25943072      -0.03360128      -0.18321573      -0.56229862
H        7.71816170       3.17091251      16.63057118      -0.60207186       0.13057237       1.16879516
O        5.14640877       6.78678267      14.11768060       0.15802851      -1.01664442      -0.40695757
H        4.43241829       7.34287044      14.42877148      -0.56614651       0.83365885       0.29219576
H        4.87006730       6.56477584      13.17902326       0.28129534       0.23835781       0.27642612
O        6.49823216       6.87837812      18.34714055      -0.26575120       0.99031190       0.37646341
H        5.97279917       7.68203461      18.05047717       0.39511278      -0.31339749       0.13749398
H        5.79736767       6.18615295      18.51704724       0.21260040       0.34067220      -0.54309296
O        1.09760508       4.55609350      19.11887561       0.54719481      -0.86363550      -1.34605936
H        1.78654640       3.79302675      19.01196064      -0.81615211       0.36864095       1.14990734
H        1.37734673       4.87635992      18.18850763      -0.30184369       0.72639420       0.87515657
O        3.63370712       1.77357933      14.45673823      -1.65932387       0.76922734      -0.19868423
H        3.46446514       1.80605572      13.46516359       0.67764316      -0.19273735       0.81726639
H        4.50390558       1.43287751      14.72817981       1.29751598      -0.54508820      -0.54964732
108
Lattice="8.443 0.0 0.0 0.0 9.749 0.0 0.0 0.0 35.02524358" Properties=species:S:1:pos:R:3:forces:R:3 bias_charge=-0.65 work_function=5.747846054381818 energy=-592.6253954593084 pbc="T T F"
Pt       7.03577500       5.77911800       6.50000000       0.02335720      -0.01292991       0.00602744
Pt       1.40711200       5.77911700       6.50000400      -0.01600573      -0.01842836       0.04671153
Pt       7.03577500       0.90461600       6.50000500      -0.04379285       0.01689843       0.07895688
Pt       4.22144400       5.77912000       6.50000600       0.00725258       0.03332002       0.18090856
Pt       5.62860700       8.21637200       6.50000900      -0.04435841       0.00943035       0.11439742
Pt       1.40711200       0.90461500       6.50000900       0.01986609      -0.00528237       0.12573781
Pt       8.44294300       8.21637100       6.50001100      -0.03862911      -0.05914430       0.03767772
Pt       4.22144300       0.90461400       6.50001200       0.03532870       0.01222702       0.11118952
Pt       2.81428000       8.21637000       6.50001200      -0.02043520       0.04241267       0.14644235
Pt       5.62860600       3.34186500       6.50001600       0.05448184      -0.01118976       0.10108897
Pt       8.44294300       3.34186800       6.50001800       0.03619566      -0.01420561      -0.01116609
Pt       2.81428000       3.34186700       6.50001900      -0.02678809       0.05833212       0.13794307
Pt       2.81428000       6.40710800       8.77208900       0.36969241      -0.38163547      -0.54219052
Pt       8.44294300       6.40710800       8.77208900      -0.03473003       0.15827896      -0.29013359
Pt       5.62860600       6.40711000       8.77209100      -0.20390608      -0.09321079      -0.47118962
Pt       2.81428000       1.53260500       8.77209500      -0.02289765      -0.17515241      -0.01417499
Pt       8.44294300       1.53260400       8.77209600       0.14858949       0.15338032      -0.18900504
Pt       4.22144300       8.84436100       8.77209600      -0.07122807      -0.06068346      -0.25632211
Pt       5.62860700       1.53260300       8.77209800      -0.19449012       0.06779314      -0.34016347
Pt       1.40711200       8.84436000       8.77209800       0.30462051       0.15664074      -0.54341292
Pt       4.22144400       3.96985500       8.77210100      -0.12804138      -0.22550536      -0.30494789
Pt       7.03577500       8.84436000       8.77210200       0.10750346      -0.11881769      -0.57741349
Pt       1.40711200       3.96985800       8.77210300       0.63975614      -0.28906287      -0.47295832
Pt       7.03577500       3.96985700       8.77210700      -0.67697017       0.04252998      -0.29335206
Pt       4.19154446       7.07605167      11.04512035       0.46645009      -0.24201906       0.19038398
Pt       5.47626295       4.67545311      11.04252883       1.10064807      -0.11293957      -0.09432540
Pt       1.39491001       2.12654996      11.05576722       0.27621724       0.11306316      -0.53833163
Pt       0.02114449       9.45312174      10.94664784       0.05963613       0.09945637       0.56101475
Pt       6.99482644       6.99182990      10.97327456       0.30917277      -0.08811202       0.39608874
Pt       4.24109147       2.05079788      11.04945786      -0.29722605       0.17710488      -0.09003158
Pt       2.84340049       4.53430354      11.08128714      -0.69478890      -0.10695154      -0.16130121
Pt       1.49245589       7.06950033      10.93390023      -0.85134173      -0.16658614       0.63070174
Pt       5.69822232       9.46906069      10.96986763      -0.47619714       0.07388186       0.40451366
Pt       2.84314175       9.39049496      11.08201325      -0.06035419       0.56563755      -0.05429502
Pt       7.00962890       2.17477872      10.99265729       0.15702879       0.04541443       0.13840524
Pt       0.02329856       4.56445957      10.87479581      -0.13836543       0.24435514       1.03720180
O        4.62306186       3.32682475      14.04598100       0.82753092      -1.05492000       1.46055558
H        4.87124408       3.67888158      13.17617903       0.26501536       0.13092049      -0.47480361
H        5.38297342       2.68268298      14.34446560      -1.03703099       0.89748910      -0.54818903
O        0.83368845       2.35616794      14.04892191      -0.05071464      -2.11442395       1.33316474
H        0.87962674       2.59538934      13.12671360       0.15895416       0.49931689      -1.41542739
H        0.78333786       3.18146864      14.52130415      -0.13508753       1.66541746       0.35751599
O        5.82466528       5.77195310      21.05124358       0.11164090       0.51834528      -0.52904431
H        6.23067852       5.03548253      20.55247714      -0.46982647      -0.20655181       0.00058817
H        5.01189967       6.11570947      20.52463473       0.55540211      -0.39651466       0.47173393
O        5.75451102       9.52351143      18.72576541      -0.38541037      -1.03895428       0.04882925
H        6.37590235       8.77127869      18.99198231       0.06102342       0.22723884      -0.20669402
H        6.33020117       0.51323631      18.51815312       0.45267981       0.74482291       0.14792721
O        3.63465812       6.77022968      20.02439204      -0.28428519       0.91246120      -0.65324239
H        3.58191677       6.90144046      19.01747223      -0.28901538      -0.33157675       0.81433203
H        3.47620802       7.69955296      20.39435406       0.11758827      -0.58930881      -0.30074515
O        6.68992685       1.53175478      14.85627687      -0.42211139      -0.40685267      -1.05459123
H        7.33925466       1.93082118      14.24110780       0.61012657       0.34011242       0.25141924
H        6.44298963       0.70921813      14.30216689      -0.04651854       0.34438407       1.05351091
O        7.24178582       6.69509487      15.36874528      -1.47825207      -0.21662909      -0.14411612
H        7.74286396       6.09018923      14.70330917      -0.33714446       0.22930188       0.83080918
H        6.37329655       6.22170895      15.64612118       1.29140722       0.08133734      -0.38372587
O        1.14713661       9.57798870      19.37336609       0.78782879       0.15966850       0.89858208
H        0.80949800       0.26281120      18.58603283      -0.74132871      -0.02542674      -0.62722610
H        0.52506823       8.89151216      19.68744059      -0.34148075      -0.15929355      -0.43559777
O        2.02399359       4.26868306      19.53647427      -0.78095890       0.64725801       1.16710086
H        2.50498895       5.02227735      19.91558944      -0.34655909       0.98065258       0.29783463
H        2.76977644       3.79716282      19.21761206       1.84515699      -1.58261696      -1.21112629
O        0.21829094       0.77416507      16.86910087      -0.10216004       0.57638582      -0.71058436
H        7.95141230       1.08897090      16.19969297       1.06761238      -0.12723656       0.73184424
H        1.17424456       1.06470430      16.60889915      -1.05046706       0.12774476      -0.06374332
O        6.00868615       8.86191335      14.17472221       0.64076155      -0.32408727       1.25721950
H        5.45586642       8.36110764      13.57571106      -0.48434968      -0.53444477      -0.75563103
H        6.60818528       8.17473226      14.65957690      -0.22414218       0.25209610      -0.64992354
O        3.44487424       9.62519716      20.66716185       1.08756600       0.01010202      -0.96755610
H        4.25545688       9.68288463      20.05791084      -1.03374050       0.08576864       0.68826877
H        2.65828660       0.11918739      20.09135544       0.27670759      -0.47472037       0.28318593
O        8.43112682       3.81047246      18.12722008      -0.32146789      -0.08353634      -0.08998160
H        8.43139868       2.97973900      17.63879899      -0.24647809      -0.51435854      -0.53462654
H        0.79234471       3.73594085      18.69083019       0.37583472       0.57293893       0.44998404
O        2.68609821       1.60899703      16.21866462      -0.02758148       0.19486835      -0.09675876
H        2.54515991       1.90867863      15.30043304      -0.17749944       0.28232627      -0.20926318
H        3.37259202       0.90275045      16.12167836       0.18723945      -0.68511278       0.35945717
O        2.39416324       6.75608178      14.33290874      -1.75556009       1.48975064      -1.47763112
H        1.69788473       7.53563079      14.21445534       1.04327663      -0.81833313       1.26369855
H        2.53910634       6.66098578      13.35781156       0.80100934      -0.18117939      -0.04187848
O        6.30838932       2.92006962      19.53384550      -0.63631296       0.03788853      -0.35272773
H        7.10316408       3.40829535      19.24505277       0.22187327      -0.11486905      -0.30396975
H        5.66934922       2.98644927      18.74495128       0.36377033      -0.24716797       1.12907168
O        5.15078668       5.08138819      16.24583205       1.57911530      -1.21772200      -0.80197063
H        4.78791396       4.61217784      15.44737240      -0.00901222       0.14953710       0.06925267
H        4.49467808       5.65972983      16.61353488      -1.85128828       1.36840315       0.42727445
O        0.43226667       8.90681812      14.70798309       0.51324489      -1.21499558       0.10810582
H        0.41072307       9.46409924      13.92292746       0.05036409       0.72118933       0.03781922
H        0.47200990       9.42307415      15.56340404      -0.04521566      -0.00346415      -0.63349040
O        4.22496386       3.18262579      17.95118817      -0.46861566       0.10009008      -1.07871732
H        3.65090864       2.61696419      17.32216727       0.85367993       0.83366319       0.55479538
H        4.64770318       3.92419831      17.38659135      -0.69762330      -0.92400857       0.28257580
O        0.38701958       6.33295610      17.47268611       0.03843276      -0.79660377       0.61978389
H        0.20153504       5.36522071      17.75005520       0.30104510       0.72822365      -0.70372367
H        8.24740242       6.48976518      16.68717073      -0.26860246       0.03915857      -0.45545684
O        7.59944342       7.56399040      19.38934735      -1.08005815      -1.87762338       0.15190889
H        8.01008654       6.98872768      18.56776833      -0.33471191       1.05033161       1.29754502
H        7.00101412       6.91029760      19.95096990       1.25015799       1.26614042      -0.93520635
O        4.27595835       9.17719919      16.39032975       0.15559227      -0.31711123      -1.50281460
H        4.85358536       8.96974165      15.58928169      -0.66622593       0.22627488       0.24896266
H        4.96277416       9.24685357      17.06936486       0.44715511       0.31089329       1.38016150
O        3.15784727       6.75265949      17.29675959       0.56995570      -1.49318151       0.67850101
H        3.37161194       7.64881888      17.04886529       0.13047973       1.39936103      -0.79958879
H        2.22385292       6.55100602      17.07989059      -0.41753542       0.21217171       0.26970317
O        0.41035107       5.07205366      14.20616296       1.85122064       1.12702427      -0.83088438
H        1.33486411       5.70200973      14.18321811      -1.63368977      -1.03958649       0.92979736
H        0.26263899       5.06376892      13.22837984      -0.26600632      -0.32739522       0.02193314
108
Lattice="8.443 0.0 0.0 0.0 9.749 0.0 0.0 0.0 35.15002317" Properties=species:S:1:pos:R:3:forces:R:3 bias_charge=-0.5 work_function=6.149538079660108 energy=-591.892016902273 pbc="T T F"
Pt       7.03577500       5.77911800       6.50000000      -0.05657100      -0.00048649       0.15753280
Pt       1.40711200       5.77911700       6.50000400       0.05939625      -0.01197383       0.16173700
Pt       7.03577500       0.90461600       6.50000500      -0.01398808      -0.05123395       0.05696260
Pt       4.22144400       5.77912000       6.50000600      -0.04091597       0.00943491       0.12384166
Pt       5.62860700       8.21637200       6.50000900       0.02937815      -0.02928207       0.05341621
Pt       1.40711200       0.90461500       6.50000900      -0.10238440      -0.06397763       0.10270819
Pt       8.44294300       8.21637100       6.50001100       0.09259304       0.03166192       0.12743185
Pt       4.22144300       0.90461400       6.50001200      -0.05623561      -0.10903692       0.08519414
Pt       2.81428000       8.21637000       6.50001200       0.07777552      -0.01710499       0.01493915
Pt       5.62860600       3.34186500       6.50001600       0.01460043      -0.08701400       0.09957421
Pt       8.44294300       3.34186800       6.50001800      -0.07058805      -0.04748446       0.09576849
Pt       2.81428000       3.34186700       6.50001900      -0.06780477      -0.01121144       0.17368791
Pt       2.81428000       6.40710800       8.77208900      -0.25418174      -0.15194039      -0.08798581
Pt       8.44294300       6.40710800       8.77208900      -0.19054011       0.09615362      -0.20959242
Pt       5.62860600       6.40711000       8.77209100       0.30648924       0.04087833      -0.42980074
Pt       2.81428000       1.53260500       8.77209500       0.27310031       0.46952931       0.07060347
Pt       8.44294300       1.53260400       8.77209600       0.27568506       0.32025040      -0.01309138
Pt       4.22144300       8.84436100       8.77209600      -0.26225003       0.06569835      -0.01137768
Pt       5.62860700       1.53260300       8.77209800      -0.05260743       0.85955896      -0.61121013
Pt       1.40711200       8.84436000       8.77209800      -0.28601613       0.07554842      -0.31862870
Pt       4.22144400       3.96985500       8.77210100      -0.09677318       0.19487021       0.14489551
Pt       7.03577500       8.84436000       8.77210200       0.12873778       0.04141294      -0.39323939
Pt       1.40711200       3.96985800       8.77210300       0.29991062      -0.11272731       0.07212574
Pt       7.03577500       3.96985700       8.77210700       0.10616102       0.15790296       0.09745666
Pt       4.24157264       7.03974923      10.94050675      -0.34159602       0.21617236       0.48020162
Pt       5.71804748       4.76724753      11.05201717      -0.13719620      -0.26523161      -0.16993648
Pt       1.51137772       2.20717083      11.12572770      -0.42324149       0.55788976      -0.40876636
Pt       8.37951840       9.67800948      11.02506927       0.39165259      -0.50858422       0.24511371
Pt       7.02326428       7.20900752      11.01960333      -0.07677552      -0.07244901       0.00865541
Pt       4.36057302       2.41066625      11.10902418      -0.76014888      -0.01036016      -0.25712844
Pt       2.79366189       4.69292002      11.13104203       0.47055534      -0.12729976      -0.29586449
Pt       1.36223166       7.15473681      10.99536947       0.41185182       0.06714984       0.01418483
Pt       5.59940892       9.74224287      10.89265840      -0.05612510      -0.85088393       0.75265474
Pt       2.72405939       9.62560092      10.97781706       0.66297878      -0.67267765       0.22991179
Pt       7.08062710       2.29192577      11.05448288       0.18658729       0.20715101      -0.13142802
Pt       0.09499275       4.69944388      11.01840920      -0.37894503      -0.31043724      -0.10358223
O        7.68430651       5.47271615      17.40414055       0.08665274      -1.41982563      -0.66752510
H        7.78113944       4.80018029      16.65042699      -0.10346569       1.23978473       0.80661154
H        7.21691556       6.27198018      17.06678694      -0.18899451      -0.13055909      -0.39221764
O        4.32871716       4.75484893      21.17602317      -0.33771897       0.43642995      -0.86508198
H        4.55859405       5.71711610      20.91976267      -0.83477377      -1.27754674       0.00314423
H        3.46430925       4.42971368      20.71403445       1.21217993       0.72784396       0.55917166
O        6.97523289       5.23258373      14.15425683       0.41133128       0.49382145       0.53488505
H        6.52580568       4.37290069      14.11082910      -0.57843146      -0.31243631      -0.41240492
H        7.21370509       5.56748401      13.26484573      -0.24591390      -0.34136855      -0.05857520
O        7.68303785       0.14312097      14.32969981       0.94556219       0.13657399      -1.30952528
H        8.19926487       9.05634352      14.07695267      -0.68637664       0.56221254       0.58030280
H        7.97396347       0.80245073      13.62833237      -0.47021988      -0.65537741       0.85784136
O        1.03450469       1.12193244      16.32389620       1.04118428      -0.54335312       1.30770164
H        0.97815616       1.85717983      15.70680547      -0.52147718       0.97564714      -0.70112679
H        1.66649108       1.47934002      17.02373091      -0.31892370      -0.53099885      -0.40217717
O        3.07781407       1.79410507      18.27765910      -0.16486890       0.51140702      -0.33101667
H        4.04563289       1.98281712      18.17532394       0.07091821       0.36793460      -0.63515824
H        3.10592253       1.08042411      18.92084276      -0.52161586      -1.12630984       0.83296998
O        0.73694073       3.72462651      15.06594724      -0.53547403      -0.08363937      -0.02047533
H        1.61482505       4.19583881      15.09277979      -0.45395302       0.07330155      -0.54358499
H        0.11820226       4.20434989      14.43766089       0.78943755      -0.11057787       0.75394172
O        6.08810995       7.48604455      16.23504017       0.01132188       0.87413667       2.85562024
H        6.18236114       7.14960369      15.38744573       0.87552832      -1.22700118      -3.38320497
H        5.15102476       7.26993583      16.42333890      -0.95684352      -0.22491195       0.31930429
O        1.56131508       5.93446043      18.47291333       1.59511810       0.43296518       0.03430682
H        2.21933223       6.22553148      17.77668101      -0.33575640      -0.08584739       0.62394904
H        0.73322598       5.74606228      17.99644326      -0.87516373       0.01272339      -0.40953590
O        3.50598618       6.88291042      16.55019227      -1.04246608      -0.20066120      -1.45658439
H        3.23505769       6.15886980      15.88079216       0.74935797       0.59040780       0.60960914
H        3.14959394       7.68526895      16.03885762       0.14297733      -0.32837295       0.53158110
O        0.37876609       7.45345860      13.96655138       0.11762093       0.14995210       0.82716788
H        0.39256460       7.71580609      13.03494671      -0.03742614      -0.10889386      -0.99752826
H        1.20291634       7.88132003      14.29457812       0.46721365      -0.09333454       0.14909290
O        5.07351774       0.23173678      14.10623336      -1.84308925       0.20296613      -1.70534304
H        5.95164411       9.66316576      14.33782019       1.52445487      -0.03825794       0.32678609
H        5.08412970       0.17192676      13.07692534      -0.13734013       0.10626415       1.44915096
O        6.89165838       9.16523418      20.05098733       0.14232963      -0.04502480       1.29951995
H        7.25285602       0.29743661      20.32360200       0.02123007      -0.02302085       0.26709565
H        6.82292205       9.27107288      19.08917032       0.26300915       0.12994856      -1.16508097
O        5.58229419       2.30740667      17.47085348      -1.10560852      -0.06018740      -1.14170157
H        6.01110290       1.44270411      17.48961551       0.66114598      -1.08158285      -0.15537569
H        5.99442136       2.83277008      18.16081892       0.43517523       0.94731264       1.17852819
O        7.01649173       9.58228159      17.46351763       0.89147196       0.91570341      -0.67152135
H        6.60536806       8.82245545      16.94321203       0.82855614       0.68476864      -0.20811832
H        7.86231449       0.22691215      17.01508964      -1.48060107      -0.94715037       0.48727805
O        2.84367735       9.20170571      20.07861960       0.86718164       3.00659802      -1.44974591
H        3.57312047       8.61443837      20.14117549       1.67715182      -1.42009629       0.08373041
H        2.13123282       8.77644189      20.49630308      -2.39725161      -1.32852892       1.21084032
O        7.91882852       2.13890810      20.69222846      -1.12075961       0.51550014      -0.70163634
H        0.31157286       2.60333413      20.47700099       0.35387862      -0.02690903       0.06022830
H        7.24118810       2.76334997      20.21678824       0.95518907      -0.81305213       0.78718889
O        1.92455415       3.66547654      19.97061041      -0.11132574       0.69996863      -1.06347250
H        1.72622334       4.55362508      19.48602775       0.30920571      -1.15364437       0.42080131
H        2.19655748       3.04250778      19.22066658       0.14628196       0.47214112       0.71214764
O        6.38077452       3.90559129      19.43564560       1.59815781      -0.91818824      -1.51659190
H        6.93815135       4.52305067      18.88492147      -0.75180320       0.25145017       0.61000111
H        5.71339388       4.26798810      20.02250520      -1.12898200       1.07206565       0.87258474
O        2.60051316       9.04189513      14.79081585       0.19456641       0.38942509       0.82358302
H        2.08965494       9.73223000      15.34859521       0.68260390      -0.52427656      -0.46540846
H        3.57429014       9.33224349      14.67678291      -1.09126077       0.02012615      -0.10686888
O        4.98301438       7.22008510      19.96767973       0.85781863       0.75429413       1.30164318
H        5.03587219       7.03199550      19.02415326       0.28708591       0.08909543      -0.28820991
H        5.78570874       7.80453869      20.26432563      -1.20737442      -0.66711544      -0.93861990
O        3.13607974       4.89531551      14.55284146       0.27512305      -1.57459990      -2.42385651
H        2.96940376       4.78357712      13.49188145       0.29853809       0.64516765       2.55780957
H        3.74101395       4.06481554      14.69389095      -0.19062927       1.10726882      -0.06217509
O        0.72688864       7.49295842      20.66747105      -0.16976537       0.25851681      -0.02032299
H        1.22271805       7.15618189      19.86773511      -1.04731913       0.11602343       0.21063164
H        8.32893043       7.98714179      20.41104182       0.97135036      -0.40560945      -0.22961154
O        5.13327418       3.00998484      14.82913673      -0.50298233       0.66480841      -0.24929774
H        5.17709329       2.88486730      15.80277954       0.39070622      -0.20506478       0.46869661
H        4.85792875       2.13377957      14.49989730       0.28093293      -0.51750202      -0.19006956
108
Lattice="8.443 0.0 0.0 0.0 9.749 0.0 0.0 0.0 35.12060702" Properties=species:S:1:pos:R:3:forces:R:3 bias_charge=-0.5 work_function=5.767557237310629 energy=-590.9836526528574 pbc="T T F"
Pt       7.03577500       5.77911800       6.50000000      -0.03508909      -0.01687918       0.03872361
Pt       1.40711200       5.77911700       6.50000400      -0.10556615      -0.03187653       0.15324879
Pt       7.03577500       0.90461600       6.50000500      -0.05003198      -0.05096346       0.04665107
Pt       4.22144400       5.77912000       6.50000600      -0.01186690      -0.05081267       0.13180012
Pt       5.62860700       8.21637200       6.50000900       0.03433843      -0.01508964       0.02614353
Pt       1.40711200       0.90461500       6.50000900      -0.07475694       0.02006351       0.21109706
Pt       8.44294300       8.21637100       6.50001100      -0.10696850      -0.02334526       0.07190302
Pt       4.22144300       0.90461400       6.50001200      -0.01222347      -0.05718853       0.05366966
Pt       2.81428000       8.21637000       6.50001200       0.04691530      -0.02405374       0.17160048
Pt       5.62860600       3.34186500       6.50001600       0.07424535      -0.01968483       0.07100023
Pt       8.44294300       3.34186800       6.50001800       0.06833767       0.01298480       0.08858581
Pt       2.81428000       3.34186700       6.50001900       0.02340005      -0.00751049       0.07451733
Pt       2.81428000       6.40710800       8.77208900       0.13887391       0.09139019       0.03881811
Pt       8.44294300       6.40710800       8.77208900       0.54474266      -0.06529116      -0.02206013
Pt       5.62860600       6.40711000       8.77209100      -0.15047148       0.14290249       0.10520635
Pt       2.81428000       1.53260500       8.77209500      -0.19351842      -0.01861434       0.15757960
Pt       8.44294300       1.53260400       8.77209600       0.14684078      -0.03302665       0.26254828
Pt       4.22144300       8.84436100       8.77209600      -0.30678186       0.07982335       0.10800126
Pt       5.62860700       1.53260300       8.77209800       0.13859119       0.29387398       0.47635719
Pt       1.40711200       8.84436000       8.77209800       0.09980258       0.22695214       0.31594760
Pt       4.22144400       3.96985500       8.77210100      -0.02138606       0.42501321      -0.05132787
Pt       7.03577500       8.84436000       8.77210200       0.28010297       0.32921265       0.08304321
Pt       1.40711200       3.96985800       8.77210300      -0.15318026       0.07043594       0.20930548
Pt       7.03577500       3.96985700       8.77210700      -0.19808446       0.00640072       0.47802457
Pt       4.23579066       7.15735993      11.08971247      -0.01866833      -0.23871454      -0.28263700
Pt       5.56923741       4.78575292      11.09468495       0.33106188      -0.21508801      -0.31010204
Pt       1.41074905       2.29007288      11.10660244       0.04031164      -0.25967772      -0.18267393
Pt       0.01652497       9.49709272      11.17491948       0.40136053       0.24638663      -0.63175013
Pt       7.13782523       7.11850223      10.96150642      -0.64883116      -0.08318433       0.40427180
Pt       4.17640256       2.40020348      10.99915334       0.35454277      -0.31372735       0.03636144
Pt       2.72144659       4.73538031      11.09888612       0.38423240      -0.07675706      -0.13097281
Pt       1.52382446       7.22124038      11.06919767      -0.40715824      -0.15597394      -0.10199722
Pt       5.60612398       9.51940497      11.01686124       0.65316452       0.08755431      -0.11473474
Pt       2.93064410       9.68688957      11.18482292      -0.79361919      -0.16523199      -0.62174683
Pt       7.15917244       2.13735622      11.10305291      -0.80151863       0.07269667      -0.49267739
Pt       8.37607008       4.69508955      11.12028795       0.28176820      -0.25835254      -0.42367594
O        7.85224352       4.58202809      17.82941525      -0.15520795       0.87122417       3.01041190
H        8.12942186       4.21815337      17.01636313       0.56452565      -1.35586041      -2.56850478
H        7.24263829       5.31205807      17.67892225      -0.72900724       0.62072160      -0.66268188
O        4.82278307       4.01515112      21.14660702       1.90203512       0.81685243       0.28742619
H        4.84942600       4.97122956      21.42304927      -0.35485414      -0.74726287      -0.56474153
H        3.94604219       3.61433606      21.27419335      -1.12172549      -0.11486710      -0.08555771
O        6.41959428       3.04363212      14.23562223       0.62050303       0.83112907      -0.86027422
H        5.59729709       2.78129034      14.67608633      -0.66592557      -0.26661038       0.23019405
H        6.18135379       3.74928455      13.57982109       0.02342173      -0.55313419       0.33313710
O        6.32451409       9.37721888      14.46037293       1.62063241      -0.14794376       0.99418751
H        7.08542096       8.70609903      14.54356818      -1.24805801       0.62985734      -0.57539990
H        6.59509947       0.34526863      15.09640108      -0.48270139      -0.51815703      -0.77738209
O        0.58162363       0.50550306      17.16781731       0.34565814       0.86621411      -0.24580177
H        0.65344240       1.28883929      16.53363489      -0.37139242      -0.65832046       0.49951681
H        1.10297443       0.82977514      17.96223306       0.16166836      -0.31199810      -0.22427351
O        2.69751036       1.06640543      19.03042757       1.67245063       0.82131379      -1.35299023
H        3.73137693       0.98120049      18.67251859      -1.77706541       0.39932192       0.66975506
H        2.72106740       0.25880090      19.56654450      -0.40595865      -1.21293436       0.82100963
O        0.35277043       3.04616449      15.63854435      -0.47940035       0.94662913      -1.12543025
H        1.16519751       3.58516059      15.39855661      -0.63411387      -0.54797362      -0.16905607
H        8.12616475       3.23643114      14.87106669       0.87131006      -0.68474815       1.54395178
O        5.86782851       6.44703013      16.84231899      -0.77877409      -0.61832357       1.44456915
H        6.08646425       6.61901795      15.94943115       1.09398769       0.39377316      -2.19958089
H        4.91713676       6.10852819      16.69834427      -0.01934406       0.13628466       0.62641155
O        1.82995568       4.93375579      19.01450983      -1.01482755       0.10528594       0.66139391
H        2.39686069       4.94728403      18.24521843       1.02566800       0.23628252      -0.86754836
H        0.93052542       4.98926833      18.59833966      -0.09855407      -0.38778578      -0.01187630
O        3.33395078       5.73552468      16.51317792       1.00540343      -1.25644002      -0.04047068
H        3.19923289       5.27351360      15.62444952      -0.12188198      -0.05409418       0.62542841
H        2.89735823       6.58045243      16.39009082      -0.83308416       1.47159595       0.13361349
O        7.87627127       7.03997765      14.54715969       0.74401143      -0.80145892       0.07110783
H        8.30069267       6.29884237      14.04676092      -0.70889816       0.45972188      -0.25173195
H        0.18157919       7.22023845      15.15275008       0.25790833       0.50170348       0.35055112
O        3.64230450       9.46254625      14.20886201      -0.53591409      -0.21393345      -0.04253774
H        4.60542310       9.29741844      13.98331595      -0.52528900       0.24054457       0.04991922
H        3.08454382       9.63758235      13.39131745       0.77190433      -0.34462081       0.13015690
O        7.07815690       8.08936871      20.61333760       0.36604623      -0.10029695      -2.35722578
H        7.10632671       8.98946185      20.98979372       0.13349538       0.59964312       0.24101444
H        7.14886375       8.31014262      19.55433767      -0.15137472      -0.64005650       2.28622360
O        5.22789797       0.83057965      18.36922236       0.22268255      -0.47993419      -0.23507003
H        5.74936470       9.68736022      18.31248180      -0.55022700       1.58787846       0.16574284
H        5.76712731       1.54063954      18.81425416       0.12027954      -0.40604624      -0.06171143
O        6.92836013       8.61948938      18.06070223       1.87116942       2.59787915      -0.02086816
H        6.72982749       7.99094805      17.39304842      -1.17920539      -2.22149476      -1.18841732
H        7.57543924       9.24404866      17.55938780      -0.29476000      -0.30732188       1.16045569
O        2.70011725       8.64066848      20.56695280      -0.56326347      -2.68496761       0.28551094
H        3.49261658       8.01155405      20.70012463      -0.64832619       1.15042119      -0.02409197
H        1.94516418       7.86004298      20.61307272       1.17532494       1.65440644       0.18396872
O        7.70005423       1.10626678      21.13222593      -1.11494977       0.35333638      -0.81306228
H        0.18570180       1.04029416      21.24659536       1.91988897      -0.38499927       0.52335527
H        7.62769191       1.85880420      20.42678103      -0.71102573      -0.69603134       1.01464601
O        2.45234241       3.03483999      21.09834614      -0.74396181      -1.53205140      -0.40189163
H        1.96794400       3.68544713      20.56659029      -0.01129342       0.65379222      -0.25507771
H        2.38712765       2.24365373      20.45931745       0.62958969       0.59738432       0.49196386
O        6.75080022       2.89122485      19.72029225      -0.62200507       2.24200557      -1.44295244
H        7.09274470       3.65349262      19.11446962      -0.22829629      -1.56949954       0.58005916
H        5.94658661       3.34832230      20.17709597       0.55344621      -0.45645730       0.28963026
O        2.01208016       8.07573929      16.04263831      -1.58815701      -0.55045027       1.62892968
H        1.66567499       8.79412701      16.67579222       0.60831438      -0.47672142      -1.19814387
H        2.62899352       8.42214172      15.39860251       0.72912687       1.12348793      -0.73591751
O        4.73708415       6.75219545      20.71343322      -0.31971105      -0.08075183      -0.81156091
H        4.46146205       6.67721939      19.76979148       0.09069494      -0.31045732       0.54932188
H        5.64602414       7.14037499      20.63371045       0.28611473       0.46274852       0.34333088
O        2.56814462       4.25150974      14.58376599       0.60830570       0.43891262      -2.35360082
H        2.73611160       4.49379836      13.59050861      -0.58307286      -0.27926328       1.41485539
H        3.10631063       3.42266028      14.67104047       0.12117340      -0.41132821       0.40031087
O        0.98082315       6.61590214      21.00597344      -1.29285947       0.74752582      -0.35612213
H        1.17297427       6.05774673      20.19376161      -0.28963601       0.53611230       0.62396788
H        0.05465250       7.11359253      20.94666706       1.54882193      -1.01430439      -0.35275426
O        3.91973694       2.00209087      15.36873650       0.91539096       3.01575381       0.49331033
H        3.88844178       2.07187664      16.33790026      -0.13424209      -0.60308249      -0.04289581
H        3.55651113       1.20197368      15.00328860      -0.34444449      -2.03328841      -0.27261447
108
Lattice="8.443 0.0 0.0 0.0 9.749 0.0 0.0 0.0 35.08020879" Properties=species:S:1:pos:R:3:forces:R:3 bias_charge=-0.5 work_function=4.905476701970019 energy=-590.8870957635895 pbc="T T F"
Pt       7.03577500       5.77911800       6.50000000       0.04083943       0.02991369       0.09673607
Pt       1.40711200       5.77911700       6.50000400      -0.01382705      -0.01295105       0.14430172
Pt       7.03577500       0.90461600       6.50000500      -0.03749532      -0.03095525       0.01930983
Pt       4.22144400       5.77912000       6.50000600       0.02006183      -0.04525111       0.11195167
Pt       5.62860700       8.21637200       6.50000900       0.16895885      -0.02274244      -0.02943843
Pt       1.40711200       0.90461500       6.50000900      -0.01341979       0.03821781       0.16832736
Pt       8.44294300       8.21637100       6.50001100      -0.06282869      -0.00640985       0.00591234
Pt       4.22144300       0.90461400       6.50001200      -0.08358833      -0.00457762       0.08560863
Pt       2.81428000       8.21637000       6.50001200       0.09117838       0.06495612       0.26885489
Pt       5.62860600       3.34186500       6.50001600       0.03177947      -0.02539941       0.00669808
Pt       8.44294300       3.34186800       6.50001800       0.01779210      -0.00725816       0.11744440
Pt       2.81428000       3.34186700       6.50001900       0.07868473       0.01112125       0.09177059
Pt       2.81428000       6.40710800       8.77208900      -0.05487663      -0.07102882       0.21180559
Pt       8.44294300       6.40710800       8.77208900       0.10911890      -0.14483344      -0.07474862
Pt       5.62860600       6.40711000       8.77209100      -0.26524645       0.06019602      -0.33826086
Pt       2.81428000       1.53260500       8.77209500      -0.05384101      -0.37860223      -0.11114226
Pt       8.44294300       1.53260400       8.77209600       0.22457769      -0.02007711      -0.43084043
Pt       4.22144300       8.84436100       8.77209600      -0.99100874      -0.04317112      -0.31992238
Pt       5.62860700       1.53260300       8.77209800       0.23883608       0.08911366       0.18378377
Pt       1.40711200       8.84436000       8.77209800       0.59199101      -0.14602117       0.14000449
Pt       4.22144400       3.96985500       8.77210100      -0.38922434       0.17101759       0.03758674
Pt       7.03577500       8.84436000       8.77210200      -0.13023360       0.14482235      -0.02495537
Pt       1.40711200       3.96985800       8.77210300      -0.14735647       0.00989882       0.28471020
Pt       7.03577500       3.96985700       8.77210700       0.19337880       0.13859542      -0.12550148
Pt       4.25164725       7.02820840      11.04577977      -0.90386703      -0.02075625      -0.02640008
Pt       5.62260466       4.60613927      10.99723810      -0.28493414      -0.38085749       0.15981896
Pt       1.43405866       2.08203010      11.04762781      -0.10302873       0.26304764       0.01631763
Pt       8.42128080       9.44189098      10.97978699       0.13803479       0.06188917       0.28248538
Pt       6.98290816       7.07236631      10.99099603       0.23906660       0.13143009       0.23026572
Pt       4.18590148       2.22125489      10.97483308       0.05124879      -0.09466527       0.24498780
Pt       2.72025823       4.65541387      11.16256851       0.38714638      -0.17656201      -0.63161491
Pt       1.33305535       6.92488673      11.07109653       0.29607859       0.46011221      -0.15004863
Pt       5.47480451       9.43241326      10.97413967       0.65704611       0.20125911       0.46256131
Pt       2.73194910       9.51984508      11.32730702       0.38723469      -0.29025792      -0.87186515
Pt       7.17724008       2.22281395      10.98933546      -1.09718117       0.02454040       0.03960117
Pt       8.33903650       4.65557906      11.16724254       0.68954382      -0.09686188      -0.44217970
O        5.70516662       7.86897788      18.10174849       0.15601268       0.02900187       0.92188432
H        5.15607561       7.03812131      18.21301189      -0.13772459      -0.13827480      -0.00875885
H        5.31360428       8.51334507      18.74519702      -0.08944132      -0.00242694      -0.13410760
O        2.74752088       8.23076688      21.10620879       0.37003544       0.95468282      -0.88256870
H        2.84604554       7.43943734      20.48895549       0.06304936       0.43642068       0.77734559
H        3.35438656       8.97513279      20.80273969      -0.54353136      -1.17513404       0.04194899
O        7.34425833       5.27020539      16.93157734      -0.05914380      -1.14974879      -0.73160618
H        7.11727939       4.30877635      17.21127177       0.37360366       1.03918574      -0.37131158
H        7.55261879       5.20830215      15.93781603      -0.62023782       0.12327584       0.86897227
O        5.05041009       8.63414282      15.84021032      -0.02929681       0.55697922       0.21192185
H        5.25427096       8.28191781      16.81712864      -0.10672858       0.36153955      -0.89840499
H        4.13147522       8.33796800      15.45378951       0.90588542      -0.11785656       0.24754046
O        7.16735672       8.18366321      14.62914634      -0.46057528       0.25882859       0.34209797
H        7.60640725       9.01167977      14.34473747      -0.38476800       0.12224430      -0.11208823
H        6.18017964       8.38958684      15.10825600       1.13784377      -0.17238330      -0.55340483
O        1.91990659       5.44832538      14.49847775       1.01223103      -0.12889095      -0.05146356
H        2.54600587       5.00585688      13.88699886      -0.01493994      -0.21681477       0.14231703
H        1.04767395       5.28837381      14.11328520      -1.02715681       0.28932671      -0.19360668
O        6.34335886       2.88740366      17.67031948       0.61604846      -0.27844521       1.38269070
H        6.07065975       2.29870707      16.92696284      -0.42503157      -0.10522651      -0.18987447
H        6.79689243       2.29592048      18.35277604      -0.40793022       0.23884540      -0.72209237
O        4.25683529       0.21757479      19.32489678      -3.09557588      -2.32909630      -0.00275599
H        5.00417072       0.73436459      19.17295122       2.35905997       2.03553407      -0.48796945
H        3.61817381       0.30837563      18.54704731       1.00938869       0.56136335       0.67587086
O        0.72816879       4.21662918      19.44856011      -0.99457355       0.12667878       0.44170953
H        0.77797221       3.96273724      18.51740866       0.64323390       0.03089838      -0.75655006
H        8.41261632       4.86562686      19.44363113       0.18430780      -0.21449478       0.45939507
O        2.86606966       7.91328826      14.98492471       0.34899784       1.22185028      -0.79487329
H        2.76879807       7.07970577      14.51153320      -0.37515418      -0.87362578      -0.44001297
H        2.42831313       7.75335606      15.81488486      -1.26922813      -0.26213509       1.12483352
O        4.49250032       5.56052633      18.16251434      -1.42731710       0.34618738      -0.40656513
H        3.62954685       5.48158743      17.63775436       0.93642838      -0.33140232       0.63570565
H        5.19957442       5.25164701      17.58235318       0.46715509      -0.31564795      -0.68836652
O        6.99964552       5.89220244      20.12538006       1.21448158       1.33322748      -0.75128418
H        6.25415109       5.31201916      20.06786966      -1.34827717      -1.00776914       0.06912297
H        6.86173748       6.51272217      19.35854909       0.10439732      -0.28949677       0.56969394
O        2.70746808       5.63473040      20.47618695       0.69576763      -0.34959183       0.03858209
H        1.96565276       5.06788447      20.10051318       0.38104126       0.14451540      -0.16675016
H        3.56786280       5.16784174      20.28142962      -0.89523913       0.52304048       0.08159880
O        8.03185241       1.22791407      14.07834259      -0.18536299      -0.32071859       0.82221758
H        8.00276167       1.33901083      13.10898537      -0.06462880       0.12687033      -0.35061134
H        0.54588258       1.11109340      14.28767430       0.18293843       0.24161934      -0.21693270
O        0.79476272       9.54003422      18.90621184       1.89886060       2.17019616       3.18032875
H        0.60446190       8.84742712      18.31965293      -0.47649431      -2.72182566      -2.00611575
H        1.47155532       9.22429513      19.61111454      -1.20793104       0.09104944      -1.22829888
O        2.05961101       4.23418464      16.93952781      -0.41010482       1.40426001      -0.07162963
H        2.51780566       3.42463956      16.73307773       0.55377611      -1.16138332       0.11030193
H        1.94389610       4.66575830      16.04998304      -0.03979998       0.01047482       0.16261478
O        0.45104350       7.57137338      16.80879366       1.07515379      -2.37168507       2.50929447
H        8.41566894       7.87253640      16.06636872      -1.60623797       1.03030358      -2.25856176
H        0.01671623       6.64182597      16.95572963       0.71794348       1.51263443       0.09499068
O        2.27641008       1.13797239      14.35400793       0.20248744       1.23298903       0.78914505
H        2.81064886       0.38579468      14.09687144       0.37496073      -0.89722573      -0.25488274
H        2.89744548       1.92670112      14.32149348      -0.36356756      -0.19295823      -0.39649091
O        4.07047246       3.39204981      14.23333270      -0.31383725      -0.52908450       1.10760913
H        4.41295867       3.74950522      13.41110703       0.42274681       0.15594774      -0.89177703
H        4.80435080       2.85352001      14.65804405      -0.35939801       0.17765049      -0.35564557
O        4.78138073       3.51386606      20.16979984       1.57750286      -0.05895126      -1.38852522
H        5.18097861       3.43756961      19.23414563      -0.24293445       0.06335430       1.27712690
H        3.86824397       3.42270865      19.91313305      -1.24138492      -0.31253354       0.05148958
O        5.58712187       1.60815561      15.45237836       0.47794497       1.29459006       0.44309473
H        5.35958536       0.67941255      15.52955423      -0.78877064      -1.75326572       0.28675743
H        6.54578204       1.56244704      15.30756501       0.70983935       0.06436689      -0.92613302
O        7.16144732       1.16666937      19.82774537      -1.77841544       1.28431835       0.05364320
H        7.58289605       1.97720181      20.15304417       0.27020603      -0.01181862       0.28906351
H        7.84228586       0.49892205      19.76622518       1.33162511      -0.83919014      -0.50050175
O        7.55446195       5.72429437      14.21665316       0.63122220      -2.18598886       0.29493047
H        7.41286281       5.26180930      13.36207939      -0.21508218       0.41967551      -0.01084839
H        7.45886478       6.69425295      14.16647057      -0.34005333       1.32480422      -0.30233000
O        2.72248746       1.55159488      17.39179999      -2.68161552      -1.54754837      -0.76014999
H        2.55324327       1.25710054      16.44457347       0.78526788       0.32663196       0.37183674
H        1.79172187       1.21079448      17.70895151       1.80783997       0.71625505       0.26152358
108
Lattice="8.443 0.0 0.0 0.0 9.749 0.0 0.0 0.0 34.44574976" Properties=species:S:1:pos:R:3:forces:R:3 bias_charge=-0.25 work_function=4.761417116027351 energy=-589.6632607432623 pbc="T T F"
Pt       7.03577500       5.77911800       6.50000000      -0.02694768       0.09784491       0.19064262
Pt       1.40711200       5.77911700       6.50000400       0.07871022       0.03023288       0.07896176
Pt       7.03577500       0.90461600       6.50000500       0.07500052       0.01713776       0.14774390
Pt       4.22144400       5.77912000       6.50000600       0.00162800       0.02174560       0.14445095
Pt       5.62860700       8.21637200       6.50000900      -0.00472319      -0.06109683       0.05134146
Pt       1.40711200       0.90461500       6.50000900      -0.08593775      -0.00110148       0.05775126
Pt       8.44294300       8.21637100       6.50001100       0.01975653       0.05626066       0.15825370
Pt       4.22144300       0.90461400       6.50001200      -0.08718938       0.02952904       0.15030587
Pt       2.81428000       8.21637000       6.50001200       0.00663646      -0.01186710       0.07222903
Pt       5.62860600       3.34186500       6.50001600      -0.06552292      -0.03064716       0.11096402
Pt       8.44294300       3.34186800       6.50001800      -0.08637344      -0.00843889       0.11920516
Pt       2.81428000       3.34186700       6.50001900      -0.11584248       0.02360664       0.10501078
Pt       2.81428000       6.40710800       8.77208900       0.09085320      -0.01545747       0.00889811
Pt       8.44294300       6.40710800       8.77208900      -0.31355625      -0.17839822      -0.53931434
Pt       5.62860600       6.40711000       8.77209100      -0.18079530      -0.09119775       0.10710161
Pt       2.81428000       1.53260500       8.77209500       0.48433183       0.04069525      -0.54985888
Pt       8.44294300       1.53260400       8.77209600      -0.13403125      -0.11128212       0.43655637
Pt       4.22144300       8.84436100       8.77209600       0.20954805      -0.13158393      -0.00360437
Pt       5.62860700       1.53260300       8.77209800       0.19476531       0.21503552      -0.11299855
Pt       1.40711200       8.84436000       8.77209800      -0.50364128      -0.21746743      -0.25346121
Pt       4.22144400       3.96985500       8.77210100       0.35157129      -0.08402599      -0.22676830
Pt       7.03577500       8.84436000       8.77210200       0.21385885       0.05821734      -0.28655579
Pt       1.40711200       3.96985800       8.77210300      -0.18965675      -0.00541180       0.16337411
Pt       7.03577500       3.96985700       8.77210700       0.18120503      -0.05391848       0.10845682
Pt       4.23901973       7.00099961      11.07120322      -0.17945960      -0.42526353       0.01600947
Pt       5.64699109       4.46267441      11.07613577       0.11549370       0.31587920      -0.36505120
Pt       1.55341140       2.07797839      11.00518644      -1.11713517      -0.02984880       0.24684674
Pt       8.44116430       9.34039264      11.11908369       0.14110257       0.25784770      -0.42398494
Pt       7.00694084       6.98453173      11.00791295      -0.01614947       0.01051820      -0.17069835
Pt       4.23801333       2.09139693      11.08865082       0.39756363      -0.07179302      -0.06474816
Pt       2.89999550       4.50158582      11.02593400      -0.10323671       0.34268008      -0.02784388
Pt       1.31938987       6.79047637      11.00061566       1.12735724       1.38978856       0.15692533
Pt       5.67954971       9.52083222      10.98674012      -0.22494988      -0.16562189       0.09443660
Pt       2.75577335       9.40571806      10.92895352       0.38477773       0.05002719       0.72957887
Pt       7.06965441       2.20917403      11.11052969       0.38248978      -0.34924523      -0.45236868
Pt       0.16154320       4.53259551      11.12664188      -1.15212747      -0.85706259      -0.33650917
O        6.58771896       1.71105858      17.22715653       0.39118451       0.62117504      -0.12906337
H        7.49961210       2.17998980      17.44162457      -1.13475736      -0.40793500       0.22202550
H        6.71648455       0.75301094      17.47522026       0.31726434       0.71451661       0.53816038
O        3.98049891       6.68882017      13.40718988      -0.79693789      -0.26265209       0.79633184
H        3.43556680       7.52018536      13.59430520       0.12431127      -1.06770132       0.27788734
H        3.52040995       5.85854680      13.82675844       0.65762471       1.97116469      -0.90736096
O        1.91508811       3.97585757      14.01465104       1.02626350      -0.68025491       0.88092325
H        2.36130231       3.80415176      13.15055870      -0.18321183       0.09254956      -0.22454337
H        1.10636348       4.50480062      13.85598692      -0.46308280       0.29175419      -0.20936826
O        5.88831836       1.93412760      20.30186760       1.01219830      -1.11137710      -0.46803846
H        5.25577048       2.63633428      20.37564708      -0.84661889       1.13960023      -0.05903174
H        6.28908720       2.01867931      19.40111052      -0.38063940       0.05970586       0.36618086
O        7.14614536       9.34446123      18.62125891      -2.19925760      -0.69301359      -0.51749770
H        6.24178660       9.28116711      19.18969760       1.97355520      -0.42781943      -0.75169610
H        6.98012287       8.86353480      17.67903388       0.48584451       0.03438815       1.69018670
O        3.86524597       4.64849519      15.82285348      -3.19560853       0.25779566       0.09096734
H        2.96673911       4.48080949      15.30962767       1.79269648       0.15572853       0.76703043
H        4.56139617       4.35640433      15.23550944       1.25155947      -0.63291781      -0.77977030
O        6.45274486       6.16097054      19.98740017       0.39867667      -0.41599529      -0.91924506
H        6.21644699       6.52370310      20.85027895      -0.54751847       0.28928363      -0.19271037
H        5.73475180       6.24854346      19.30211133       0.38667997      -0.07333729       0.87992495
O        5.00131419       6.40101124      17.40399221       1.13724710       0.26544431       0.25759233
H        4.43611294       7.11465022      17.69801614      -1.18563966       0.60503691       0.69514012
H        4.41963646       5.85008056      16.84269905      -0.29547981      -0.87882763      -0.59093434
O        0.84832771       5.44726258      18.46193511       0.96386152       1.62661414       0.34535725
H        0.68135503       4.55849535      18.10938923      -1.05227760      -0.69619324       0.09264155
H        0.10911952       5.90601433      18.92482916      -0.04518333      -0.87260550      -0.34219707
O        3.75551374       1.24541164      17.39862856       1.23379185       0.62059957      -0.87687496
H        3.21217909       1.78825222      16.79961915      -0.60016014      -0.24375900      -0.18599000
H        4.65514827       1.61607401      17.12381120      -0.40216030      -0.53748172       0.89080677
O        1.17578684       1.51483680      15.39105565       1.05742200       1.07088246      -1.07912756
H        1.65342974       1.99797709      14.64751659      -0.56668071       0.10324610       0.97967935
H        1.32792254       0.58754782      15.11266797       0.15219775      -0.86964474       0.27212122
O        0.91053289       6.97407205      16.18607763      -0.40717062       0.34684978      -0.61952709
H        1.15609916       6.33448755      16.89427916      -0.51807338       0.20743923       0.23374528
H        8.37417247       7.22570580      16.27615036       1.08711337      -0.47595804       0.32314803
O        3.20468900       8.21928798      18.60163392       1.68961963      -0.82151287      -0.12139037
H        2.27891528       8.22550698      18.89038054      -0.59055325       0.62159975       0.08368666
H        3.46896576       8.96044868      18.03286148      -0.88156851       0.55093409      -0.12830282
O        8.20372000       5.28647675      13.51995026      -1.12042503       0.91547553       0.23442668
H        7.28272751       5.01362907      13.75527588      -0.09233993      -1.28006167       0.17774489
H        8.02937503       6.25168051      13.59746612       0.87097257       0.29926881      -0.23217577
O        5.11168305       9.03293980      20.47174976      -0.38920734       0.61552499      -1.21854112
H        5.09699909       0.29969352      20.35888963      -0.18438561      -1.11317424       0.30879087
H        4.43596247       8.61214463      19.82777667       0.39069643       0.86194046       0.96039138
O        6.82295530       7.93058943      16.45868325       0.27157561       0.25261658       0.93033896
H        6.70412988       8.13357897      15.53008848       0.04329621       0.50833803      -1.44219061
H        6.01885580       7.40626964      16.73366556      -0.11754196      -0.93395306       0.12742348
O        0.94246701       9.02454079      19.90971491      -1.25221845       0.62221136       1.41660983
H        8.41408718       9.10953003      19.53711523       0.94443895      -0.22834985      -0.02842209
H        0.82327233       9.11691637      20.91158514       0.34172102      -0.29914165      -1.66439406
O        7.06464431       1.32392201      14.73834342      -1.79852473      -0.23479892      -1.42772461
H        7.89687530       1.74577115      14.57281853       1.65472488       0.29016996      -0.15798520
H        6.86191997       1.57101658      15.67030412      -0.21858230      -0.29377252       1.03329305
O        0.41117099       2.91100067      17.76900798       0.11471172      -0.42329360      -0.72048507
H        0.94749957       2.49502119      18.53131671       0.16700567       0.01164473      -0.54067145
H        0.75853006       2.51437257      16.91131259       0.11908982       0.21747328       0.74052952
O        5.94021345       3.82487344      14.29422150       0.80057615      -0.89541530       0.99848118
H        5.50167302       3.84892723      13.43539191      -0.33025440      -0.21667836      -1.08917873
H        6.29709526       2.85357364      14.39728270      -0.56244504       1.11404908      -0.37040845
O        2.13554169       1.80558192      19.43992293      -1.26607327      -1.27192769       0.21483154
H        2.82414025       1.56633953      18.77482749       0.32835834       0.05512932      -0.14682761
H        1.60249474       0.92095163      19.52767187       0.81454362       0.90208233       0.35932057
O        7.18728112       8.38881722      13.72817971      -0.88886791       0.40871631       0.22271366
H        6.31914731       8.20045453      13.26508478       0.72503161       0.24856365       0.18745053
H        7.18655236       9.39007062      13.84041407      -0.09146093      -0.59256065       0.06638224
O        1.93394350       8.70148941      14.46507918       1.56263719       0.56761605       1.14299272
H        1.45852352       8.72350728      13.64864553      -0.99530460      -0.39827028      -1.38668610
H        1.67741307       7.93017845      15.03983650      -0.64415029      -0.11805751       0.13984737
O        3.43312546       4.48303815      19.45228691      -1.48344769      -0.72439438      -0.46391568
H        2.92384655       3.61678856      19.51514456       0.69972677       0.98012725       0.12549642
H        2.75392595       5.02477062      18.94747583       0.69064758      -0.35403417       0.64755517
108
Lattice="8.443 0.0 0.0 0.0 9.749 0.0 0.0 0.0 34.16891343" Properties=species:S:1:pos:R:3:forces:R:3 bias_charge=0.0 work_function=4.726838532813698 energy=-589.1370903921662 pbc="T T F"
Pt       7.03577500       5.77911800       6.50000000      -0.04797552      -0.04050479       0.04345300
Pt       1.40711200       5.77911700       6.50000400      -0.09532819      -0.05321457       0.04834128
Pt       7.03577500       0.90461600       6.50000500       0.01100912      -0.08593276       0.11764538
Pt       4.22144400       5.77912000       6.50000600      -0.03402889      -0.09486757       0.19492415
Pt       5.62860700       8.21637200       6.50000900       0.11491160       0.04753106       0.13673616
Pt       1.40711200       0.90461500       6.50000900      -0.00252332      -0.02489127       0.03294952
Pt       8.44294300       8.21637100       6.50001100      -0.03238208      -0.10339829       0.16027035
Pt       4.22144300       0.90461400       6.50001200       0.13967511      -0.01342645      -0.01406498
Pt       2.81428000       8.21637000       6.50001200      -0.02331953      -0.01407628       0.06545660
Pt       5.62860600       3.34186500       6.50001600      -0.00872884      -0.10029485       0.11089234
Pt       8.44294300       3.34186800       6.50001800       0.03153317      -0.15768307       0.08706717
Pt       2.81428000       3.34186700       6.50001900      -0.01037640      -0.05646043       0.08785730
Pt       2.81428000       6.40710800       8.77208900       0.00836267       0.00040067      -0.11183600
Pt       8.44294300       6.40710800       8.77208900       0.21693214       0.65917750      -0.50954086
Pt       5.62860600       6.40711000       8.77209100       0.28091938      -0.20093156      -0.59091145
Pt       2.81428000       1.53260500       8.77209500      -0.32294840       0.36543924      -0.15733715
Pt       8.44294300       1.53260400       8.77209600       0.06971415       0.37682318       0.04077341
Pt       4.22144300       8.84436100       8.77209600       0.03048630       0.30006528      -0.80885790
Pt       5.62860700       1.53260300       8.77209800       0.12494580       0.44473369       0.38932773
Pt       1.40711200       8.84436000       8.77209800      -0.15257665       0.23592181       0.06793776
Pt       4.22144400       3.96985500       8.77210100      -0.00711152       0.22767498      -0.14444105
Pt       7.03577500       8.84436000       8.77210200      -0.20678791       0.16793269      -0.06367412
Pt       1.40711200       3.96985800       8.77210300       0.40140203       0.13960518       0.11774637
Pt       7.03577500       3.96985700       8.77210700      -0.29246743       0.03574423       0.27738755
Pt       4.38124023       7.25648668      10.94897206      -1.26650808      -0.25980765       0.82277978
Pt       5.53933479       4.76643021      11.10127921       0.73755558      -0.57876148      -0.30435459
Pt       1.38930011       2.35196314      11.09658584       0.12485915      -0.13427907      -0.76300564
Pt       8.33029101       9.61345703      10.97959967       0.77086007      -0.38077031       0.11946580
Pt       7.01161506       7.07278304      11.02645693       0.64955536       0.24201800       0.02085113
Pt       4.09605748       2.36271459      11.02210357       0.56430998      -0.03734427      -0.00790369
Pt       2.92591936       4.87473115      11.12162334      -0.90371283      -0.50013946      -0.11652946
Pt       1.51384585       7.21123723      11.03913263      -0.38145838      -0.15858838      -0.02743406
Pt       5.56009627       9.64506437      11.03323528       0.47511030       0.30000667      -0.18042905
Pt       2.87849685       9.61029060      10.96476566      -0.72966857       0.00420521       0.38367848
Pt       7.02427090       2.37303886      11.10647410      -0.22282744      -0.11029876      -0.40024243
Pt       0.03882540       4.86218591      10.92420631       0.19212258      -0.66511859       0.54493771
O        1.47977005       3.07406946      14.36066663      -1.80362255       0.54012963       1.44901135
H        0.86988932       3.33250466      15.16271783       1.37721969      -0.16618460      -0.30379521
H        0.71021654       2.88709407      13.77244441       0.25175052      -0.18404881      -0.75132034
O        5.34997636       2.48988373      14.65366385       0.33282310       0.31475820      -0.52495770
H        5.21409585       3.41303082      14.29708659       0.01865266       0.14769774       0.44065156
H        4.48652372       2.01384155      14.64432676      -0.41284862      -0.26203551       0.09262692
O        7.40591687       2.17090542      13.21506781      -0.04475783       0.49871858       0.00414144
H        7.71974971       1.22948799      13.28015318      -0.08975510      -0.18231762       0.21908255
H        6.53384687       2.21274205      13.75298768      -0.10556070      -0.04976025      -0.15410579
O        4.26274849       8.40991177      18.30447653       0.48767620      -0.97241217       0.08233550
H        4.94301761       8.36049762      19.01729442      -0.37151835       0.06360995      -0.26454898
H        3.89989400       7.47033375      18.28073705      -0.27587135       0.53197432       0.15237677
O        6.37630020       6.44838189      19.90716256       0.34234553       2.60181597       1.60869943
H        6.79240690       6.24289873      19.05664417       0.54743919      -0.18454460      -0.99807586
H        6.83401580       7.33563819      20.17330542      -1.00047392      -2.14093390      -0.45352842
O        3.08828400       1.04081811      17.81478070       0.30675115      -0.21195947       0.55713826
H        3.79669184       1.65922518      18.21127197      -0.52224869      -0.85910059      -0.24713761
H        3.36765946       0.08661622      18.03421784       0.18026588       1.05508557      -0.03353906
O        3.09524469       1.15240637      15.12314947      -1.40163249       0.58337132      -2.81410319
H        3.01321093       1.16059321      16.06700552       0.16728767       0.01966570       2.49503870
H        2.29657360       1.79021429      14.80895674       1.37381729      -0.70140650       0.16433758
O        7.51043445       6.03440339      17.48727660      -2.36263858      -0.63799973      -0.78871418
H        6.64503492       6.10119422      16.97109067       0.98072613      -0.45012532       0.78267173
H        7.93894950       6.87247357      17.26432084       1.05231757       0.83906637      -0.31050460
O        7.48652019       6.88018333      14.06178060       0.83633034      -0.22645327      -0.44923293
H        8.19605365       6.42927483      13.53218474      -0.40822526       0.25782178       0.28042944
H        6.77397313       6.20193921      14.10196180      -0.34276577       0.03396397       0.03676774
O        8.27611671       9.53592390      13.33989321       1.32227685      -1.25942485       0.38473445
H        0.74476125       9.26730031      13.67714459       0.07254659       0.71240431      -0.20160729
H        7.93700936       8.61836184      13.47598006      -1.30290014      -0.19132980      -0.01233370
O        2.70505347       6.09505032      18.10928882       0.12880855      -1.70860084       0.45676834
H        1.97568324       6.60875656      17.63269623       0.14871541      -0.25660983       0.60691845
H        2.33750273       5.17898932      18.52772442       0.17363558       2.09255469      -0.89983106
O        0.96319640       7.76183542      17.13876010       0.23619787      -0.87126536      -1.18544734
H        0.77568979       8.54976198      17.63361339      -0.29785910       1.59455381       1.22184419
H        1.20843609       8.08750497      16.22202365      -0.12831063      -0.29579859       0.05315591
O        1.34651107       4.01187400      19.12043475      -0.55746764      -0.39948411      -0.84081357
H        1.76880961       3.22322224      19.44492881       1.05400905      -0.72053725       1.23676501
H        0.86196911       3.53105513      18.38239406      -0.17279395       1.28289838      -0.35664472
O        6.85777131       1.44311214      16.54446871      -0.01611540      -0.78517385       0.61651242
H        6.54935260       0.41267907      16.56448849       0.84669050       0.83915636      -0.47973277
H        6.35713500       1.81657199      15.78741847      -0.22034229       0.23929617      -0.19427505
O        5.03244377       9.07727142      13.99894259      -0.03662759       0.02394290       0.62034733
H        5.05789684       8.47217684      13.21958179      -0.50960658       0.21804720      -0.03136318
H        4.14420387       9.50748330      14.12457944       0.72897232      -0.30686350      -0.55861677
O        4.86846959       4.72979436      16.97294757      -0.37294492       1.66606107      -0.57228401
H        4.98461789       3.92401751      17.48568601       0.07557665      -1.10216136       0.60525113
H        4.25446027       5.31238414      17.49263981      -0.07276309      -0.31078004      -0.07514001
O        5.27288427       5.11415911      14.36145989       0.45736659       0.25833326      -2.41079414
H        4.77011154       5.12281802      15.17162316      -0.56422404       0.00989228       1.42424373
H        4.66006190       5.37547887      13.61427877       0.43643681      -0.13776515       0.58946372
O        7.25010594       3.83406612      20.19491343      -2.38907831      -1.80207715       0.61622095
H        8.03588390       4.28536299      19.95125004       1.60796666       1.07772161      -0.53295521
H        6.56574834       4.48369950      20.44434587       0.49311817       0.38768422      -0.06552838
O        1.89756082       8.42725981      14.75117021       0.56312998      -0.83795703      -0.05243697
H        2.47677690       9.16713914      14.98098865       0.20367203       1.32388310       0.11272220
H        2.54721143       7.66517062      14.73407603      -1.05215182      -0.13668593      -0.39565051
O        2.45828452       5.82887446      14.94725869       0.39149848      -1.07045783       0.64717644
H        2.86232331       5.45954500      15.78874502      -0.70686890       0.36582641      -0.82790543
H        2.11881278       5.02548815      14.46236922       0.30084808       0.49145307       0.29892515
O        0.07609208       3.71224114      16.77787541       2.41647394      -1.45150037      -0.46486965
H        8.12143996       4.57121445      16.73285712      -1.05662909       1.82511432       0.33251689
H        7.89128573       3.00984828      16.63463065      -1.28108999      -1.00680933      -0.02800686
O        0.51410447       0.52881904      18.58699844      -1.24163434      -0.79994359       0.43255872
H        8.40074434       0.97718196      17.92012471       0.35368071       0.11147673      -0.08286830
H        1.44353450       0.77652709      18.50012089       0.77444897       0.61104509      -0.58997978
O        5.30389909       2.36604354      18.42717400      -1.37314638       1.36950520       1.64175020
H        5.72504169       1.88462686      17.71093292       1.59617223      -0.45192289      -0.98784584
H        5.96967223       2.82177128      19.00470659       0.11993556      -0.40178989      -0.23563813
O        6.36830930       8.77258025      16.32676408      -1.97133490      -1.03553068      -0.26234391
H        5.52254263       8.54941260      16.83733395       0.92379836       0.21389357       0.07669976
H        5.98213606       8.69212326      15.38335218       0.51849377       0.38217564       0.51379453
108
Lattice="8.443 0.0 0.0 0.0 9.749 0.0 0.0 0.0 35.21328033" Properties=species:S:1:pos:R:3:forces:R:3 bias_charge=0.0 work_function=4.6314039036445385 energy=-587.448484880086 pbc="T T F"
Pt       7.03577500       5.77911800       6.50000000       0.02684054       0.10539326       0.09897764
Pt       1.40711200       5.77911700       6.50000400      -0.00888922      -0.01579690       0.18324880
Pt       7.03577500       0.90461600       6.50000500      -0.04859235      -0.03578038       0.16760752
Pt       4.22144400       5.77912000       6.50000600      -0.09742842       0.02481458       0.06203674
Pt       5.62860700       8.21637200       6.50000900      -0.07282947       0.05117654       0.10320066
Pt       1.40711200       0.90461500       6.50000900       0.08111226       0.04094412       0.16878499
Pt       8.44294300       8.21637100       6.50001100      -0.15278587      -0.05995620       0.15488328
Pt       4.22144300       0.90461400       6.50001200       0.03031272      -0.00076131       0.09874641
Pt       2.81428000       8.21637000       6.50001200      -0.03936814      -0.01474183       0.09447810
Pt       5.62860600       3.34186500       6.50001600      -0.16657278       0.03307833       0.02828745
Pt       8.44294300       3.34186800       6.50001800       0.05620483       0.04331838       0.11713005
Pt       2.81428000       3.34186700       6.50001900      -0.09087584       0.01033833       0.15739869
Pt       2.81428000       6.40710800       8.77208900       0.12475206      -0.23697504      -0.37044624
Pt       8.44294300       6.40710800       8.77208900       0.04600369       0.15682500       0.19021439
Pt       5.62860600       6.40711000       8.77209100       0.56528854      -0.21181135      -0.24075869
Pt       2.81428000       1.53260500       8.77209500      -0.44247705       0.21198439      -0.39182982
Pt       8.44294300       1.53260400       8.77209600       0.16313923       0.05718013      -0.00121589
Pt       4.22144300       8.84436100       8.77209600       0.32846908      -0.22099895      -0.76188048
Pt       5.62860700       1.53260300       8.77209800       0.13907273      -0.15093148       0.03148239
Pt       1.40711200       8.84436000       8.77209800       0.17382097       0.04051581      -0.38022581
Pt       4.22144400       3.96985500       8.77210100      -0.02923401      -0.02580019      -0.03385363
Pt       7.03577500       8.84436000       8.77210200       0.36868871      -0.29799055      -0.22912597
Pt       1.40711200       3.96985800       8.77210300       0.32086998      -0.16070523       0.31410481
Pt       7.03577500       3.96985700       8.77210700       0.37934264      -0.28761203      -0.43084924
Pt       4.28786412       6.88095766      10.96398407       0.53308468       0.49079335       0.22043747
Pt       5.74258218       4.37542917      11.02022016      -0.47680923       0.48245793       0.17046186
Pt       1.40556480       2.08377643      11.13731050       0.01226030       0.03515542      -0.65715949
Pt       0.08670313       9.39114345      11.00248133      -0.51513338       0.14793105       0.15002306
Pt       7.10092172       6.92505337      11.14578260      -0.22687378       0.50506369      -0.46497257
Pt       4.19567660       2.08207246      11.00259265       0.62538941       0.32321311       0.13463037
Pt       2.94933754       4.49473705      11.10607275      -0.44389600      -0.24700305      -0.33862668
Pt       1.52026454       6.94794652      10.99631493      -0.43290614       0.11110007       0.36643553
Pt       5.67381225       9.30989822      10.99052181       0.28060936      -0.01367708       0.39432589
Pt       2.98025452       9.48096912      10.95151076      -1.02878135      -0.10118423       0.50242706
Pt       7.03672550       2.03315005      11.07162199       0.36965901      -0.10030473      -0.19999083
Pt       0.02700269       4.63403352      11.00867359       0.17455684      -0.51911116      -0.05251490
O        2.61911143       8.65145928      16.96995696       1.85160817      -1.03242255       0.74045801
H        3.20551983       7.76369345      16.83908824      -1.24072195       1.51180462       0.44455937
H        3.05573654       9.16176906      17.72231390      -0.68128579      -0.72414000      -0.79661453
O        7.81657153       8.49829102      18.34026633       2.47020049       1.12072128      -0.76785729
H        0.34943478       8.86766557      18.30069272      -2.27509246      -0.95662373       0.51183504
H        7.72697356       8.37096457      17.35598589      -0.07259637      -0.14554461       0.19423647
O        0.66456841       1.14508880      13.99907772      -0.40235464      -0.17146753      -1.18157103
H        1.51040887       0.68081594      14.23171893      -0.26795865       0.12162490      -0.78440675
H        0.55384609       1.25808782      12.95154362       0.69736034      -0.46030894       1.80965317
O        5.31536627       2.57251288      18.19397580       0.96067530       1.00123342      -0.22556182
H        4.46840865       2.11764439      18.21138342      -1.07112567      -0.72405573      -0.09828994
H        5.02566458       3.51876264      18.20030411       0.43838971      -0.16593422      -0.00270779
O        3.14503726       1.18831698      18.94575173      -0.79996346       1.85380988       0.08878183
H        3.19758066       1.86342043      19.70194074       0.12927508      -1.06854121      -0.26872493
H        2.54746265       1.73619779      18.35239433       0.04583723      -0.81229245       0.20212377
O        6.91799380       1.17136880      21.23928033       0.03635904      -1.36367114       0.82883243
H        6.54544446       0.49316096      20.61555678      -0.18632101       0.61969945      -0.31918107
H        6.96103938       0.55597895      22.02334644       0.23302817       1.10541976      -0.33331915
O        8.04154989       5.53997436      14.21723282       1.91991132      -1.20112227       1.18510981
H        7.20526714       5.93072693      14.42470700      -1.68671575       0.70771249      -0.55090152
H        8.31362485       5.58391417      13.28562190      -0.62234260       0.33000687      -0.54564991
O        2.73957269       3.87177710      17.33354038       1.77251689       0.60557179       1.38250714
H        2.15430568       3.60006629      16.64082852      -1.47067648      -0.39538003      -1.39027567
H        2.23900698       4.10861991      18.13229159      -0.26394401       0.02940541      -0.32625791
O        5.83851028       0.74208363      14.09130945       0.27702471      -0.40054968       1.64267560
H        6.42020756       0.91515692      14.91342554      -0.47409098       0.05392598      -1.15623894
H        6.44701709       0.43201461      13.40192461       0.34030015      -0.05663980      -0.44092613
O        3.09329082       4.65668979      13.39504161       0.88792603       0.13590940      -0.27503381
H        2.67137769       3.81252091      13.62401833      -1.35701921      -0.31817936       0.60107319
H        4.02665895       4.41695787      13.66076633       0.36731931       0.20583230      -0.15155162
O        3.29366655       9.33887515      14.48402617      -0.87471094      -0.10966142      -0.53426391
H        3.28275877       9.38320511      15.45993329      -0.19826940      -0.31947859       0.35569083
H        4.20243371       9.54350221      14.21986910       0.61401258       0.31601057      -0.25401223
O        5.46133645       9.40930001      19.46916510      -0.93602912       0.46759143       0.44961489
H        6.22271768       9.11139717      18.98078709       1.64811349      -0.86169298      -0.93901916
H        5.27740067       0.50784438      19.02382274      -0.40428636       0.06570053       0.24021860
O        5.41574474       6.92472067      14.28058040       0.38558325      -0.41323502       0.47223345
H        5.11957553       6.67608209      15.19225428      -0.75108428      -0.36164786      -0.10724353
H        6.00536949       7.64311033      14.53357724       0.34524932       0.80486276      -0.44147748
O        0.02356344       8.53468576      15.69585246       2.77967866      -0.93689290      -0.52835833
H        1.05713412       8.40668282      15.89002988      -2.57573872       0.58985816       0.10187803
H        0.02440068       8.15345168      14.78085197      -0.32894801       0.22757519       0.53011405
O        4.08232594       6.34518310      16.59178207       1.45281320       0.79125616       0.99990761
H        4.75834374       6.30392701      17.37039883      -0.78936299      -0.14916701      -0.87612259
H        3.76643529       5.42676136      16.59741276      -0.72078329      -0.53413775       0.10023458
O        1.22802017       3.46381877      14.86366061      -0.20866458       2.00221761       0.96720632
H        0.50396070       4.18049707      14.84775411       0.97245438      -0.60630936      -0.28715946
H        0.82094762       2.62990350      14.56785808      -0.23674536      -1.07703476      -0.36905344
O        5.45995448       3.31656424      14.13408499      -0.16635408       1.95990493      -0.41037792
H        5.28372543       2.37422928      14.01151056      -0.00622031      -1.10435540      -0.14740177
H        6.03566854       3.51796463      13.35215045      -0.20595795       0.06244252       0.09003656
O        1.83553962       7.07751879      13.16751971       1.30594548      -0.72102620       1.28820957
H        2.55697073       7.67201519      13.52314851      -0.43199468       0.75715260      -0.41090305
H        2.29392049       6.20624986      13.43062769      -0.77397911       0.24240102      -0.41838813
O        5.60557622       5.49727304      18.57037723      -0.19007717      -0.22108688      -0.32813152
H        6.46827316       5.07415769      18.70914717       1.01421107      -0.54411812      -0.30528191
H        5.46182716       5.73679014      19.48720858      -0.59701057       0.72278183       0.98280028
O        4.16318905       2.96433111      21.10100608      -1.19056190       0.00014814       0.53808803
H        4.83114407       2.76797591      20.44399531       0.98994508      -0.30734639      -0.38828576
H        4.15497682       2.21701299      21.73481623       0.29722968       0.25166258      -0.28192752
O        0.54928212       2.13738330      17.93994962      -1.00480963      -1.05766258      -0.26993179
H        8.40067966       1.39994906      18.26463763       0.77148860       0.59812212      -0.10513402
H        0.10341343       2.28673478      17.04713975       0.07967469       0.10907012       0.27605387
O        7.82169053       3.96860813      19.53577116       0.41579521      -1.63530214       0.73403955
H        8.32603404       3.32477345      18.93788948      -0.29647358       0.76082197      -0.17212477
H        7.66465380       3.28601916      20.25797947      -0.26068903       1.14082709      -0.47110241
O        6.20354831       7.12187051      21.12399401       0.11866937      -0.66841293       0.47901681
H        6.11671871       8.00453470      20.73812072      -0.12330604       0.30187982       0.12911887
H        6.43909404       7.22579715      22.07237373      -0.17552599       0.11675262      -0.62827096
O        7.07515194       2.36579373      15.97629340       0.26036283      -1.13807166       1.40544635
H        7.12990306       3.07030801      15.31974827      -0.73163953       0.37286384      -0.12936824
H        6.29128118       2.47675887      16.59380018       0.52660376       0.44679608      -0.44894369
108
Lattice="8.443 0.0 0.0 0.0 9.749 0.0 0.0 0.0 34.13595425" Properties=species:S:1:pos:R:3:forces:R:3 bias_charge=0.0 work_function=4.765163748604101 energy=-589.5115393092734 pbc="T T F"
Pt       7.03577500       5.77911800       6.50000000       0.01258641      -0.07767818       0.12584044
Pt       1.40711200       5.77911700       6.50000400      -0.07287474      -0.01415588       0.05739189
Pt       7.03577500       0.90461600       6.50000500       0.04189523      -0.08684731       0.02774467
Pt       4.22144400       5.77912000       6.50000600       0.10849165       0.00054786      -0.04954056
Pt       5.62860700       8.21637200       6.50000900      -0.05272181      -0.07113441       0.03909080
Pt       1.40711200       0.90461500       6.50000900       0.02005803      -0.12644614       0.12252311
Pt       8.44294300       8.21637100       6.50001100      -0.01423766      -0.10739770       0.22293920
Pt       4.22144300       0.90461400       6.50001200       0.02983553      -0.09307360       0.10462072
Pt       2.81428000       8.21637000       6.50001200      -0.07838723      -0.01411738      -0.11592134
Pt       5.62860600       3.34186500       6.50001600       0.13336954      -0.02494017       0.11850201
Pt       8.44294300       3.34186800       6.50001800      -0.10102491      -0.08565699      -0.02939049
Pt       2.81428000       3.34186700       6.50001900       0.02697338      -0.11286575       0.17819408
Pt       2.81428000       6.40710800       8.77208900      -0.25461757      -0.12855565       0.09396016
Pt       8.44294300       6.40710800       8.77208900      -0.04225784       0.58284920       0.37370179
Pt       5.62860600       6.40711000       8.77209100       0.35194419       0.41071083       0.18216382
Pt       2.81428000       1.53260500       8.77209500       0.04892239       0.71465215      -0.83929662
Pt       8.44294300       1.53260400       8.77209600       0.04387402      -0.14515332       0.20654226
Pt       4.22144300       8.84436100       8.77209600       0.25514918       0.42039300      -0.48118014
Pt       5.62860700       1.53260300       8.77209800      -0.40888221      -0.01485144      -0.13160973
Pt       1.40711200       8.84436000       8.77209800      -0.50799760       0.39487398      -0.03958255
Pt       4.22144400       3.96985500       8.77210100      -0.27250746       0.23228396      -0.17402661
Pt       7.03577500       8.84436000       8.77210200       0.17885518       0.01974978       0.53758103
Pt       1.40711200       3.96985800       8.77210300       0.32754292       0.60558919      -0.16505748
Pt       7.03577500       3.96985700       8.77210700      -0.19054034       0.40799326      -0.59251581
Pt       4.19345602       7.27767965      10.96083491       0.01056781      -0.56358379       0.28522356
Pt       5.60820586       4.76740699      11.00226666      -0.16744813      -0.12989427       0.12086959
Pt       1.42958906       2.45966557      10.98714832      -0.13407460      -0.19685010       0.46225372
Pt       0.13999188       0.01452876      11.18486641      -1.05981238      -0.38917034      -0.81345260
Pt       7.00548210       7.14729677      11.20120737      -0.06649169      -0.14965601      -0.96395034
Pt       4.13061923       2.40218237      11.04426939       0.64209675      -0.31017728       0.10001277
Pt       2.89139552       4.83786279      11.15995930      -0.67240597       0.10544187      -0.37078535
Pt       1.45300299       7.32549961      11.04703307      -0.12172094      -0.58980782      -0.42793351
Pt       5.55490663       9.60819781      11.06675496       0.47294124       0.26542485      -0.43038060
Pt       2.80368899       0.00956300      10.91948484       0.41483708      -0.65581705       0.83291459
Pt       6.96622037       2.33879389      10.93316427       0.06410912      -0.47158354       0.24124087
Pt       8.35685494       4.72250107      10.97052812       0.67658390       0.05298470       0.04678957
O        0.26157183       3.73551533      14.78273101      -1.01159585      -1.61466798       0.15459339
H        8.22503473       4.15911658      15.60262227       0.39232719      -0.41958254      -1.04547275
H        8.02293661       3.00242777      14.41326398       1.39019054       1.52693387       0.50669707
O        4.16027659       3.19707411      14.19230026       0.19506984      -0.03817758       0.70416241
H        4.17668760       4.10885715      13.84243956       0.14450609       0.20610379      -0.23071167
H        3.94622298       2.65065291      13.41208937      -0.21605455      -0.20034481      -0.42456953
O        7.00053735       1.94017783      13.95391535      -0.73430962       0.56625056      -0.18370908
H        7.25595516       1.22614205      13.31150911      -0.02878052      -0.04906267       0.30775844
H        6.23533639       2.44296982      13.58744685       0.07583723      -0.15303902      -0.03709005
O        3.51052201       9.48399957      19.21223384       0.31559585      -0.32209934      -1.17952732
H        4.41375295       9.00674641      19.22594849      -0.64866755       0.30349740       0.33349504
H        3.30443279       0.13610167      20.05695467       0.19658194       0.12393998       0.67699144
O        5.76455961       8.10835378      18.89603435       0.41663197       0.35589573       1.01038639
H        5.94711929       8.35397288      17.95792903       0.09744557      -0.21265615      -0.38880383
H        6.56975013       8.46417582      19.38737013      -0.40352218      -0.44386899      -0.65263531
O        4.59061729       1.94485277      17.77387543      -0.50303188      -0.35536547       1.77930390
H        4.98289276       2.49041538      18.61145946      -0.87632556      -0.66489980      -1.31170952
H        4.09417816       1.11435372      18.14840921       0.81988326       1.24162302      -0.20315565
O        2.14536945       1.80178698      15.88711505       0.60811375       1.72562658      -1.19872145
H        2.98574021       2.34020381      16.04180153      -0.84624482      -1.11639574      -0.05227828
H        1.71834083       2.36451123      15.14646735      -0.04183748      -0.18788650       1.32385548
O        6.30858277       8.75258729      16.23240550      -0.37327844       0.13242696       0.08890617
H        6.48306254       0.00933589      16.35696730      -0.09694600      -0.12581653      -0.01974075
H        7.19239240       8.39716354      16.06062103       0.52445698      -0.50477228       0.00015228
O        7.05450845       7.19012399      13.38850708       1.27486994       0.05139507      -0.15967173
H        7.94507591       6.70723694      13.58373403       0.09516197      -0.33757710       0.08540462
H        6.34601735       6.66171518      13.88364517      -0.62190711      -0.37483817       0.03544076
O        8.08321614       9.50911871      13.23175107       1.35729747      -0.88831253       0.66601471
H        0.58037605       9.37000785      13.73469030      -0.65592259       0.41809910      -0.29074503
H        7.62072217       8.59278607      13.32430828      -0.04478973       0.68950679       0.02365639
O        2.48541461       5.73061676      18.00162880       0.65312894       0.46512785      -0.38016027
H        2.25667818       6.50420934      17.42680824      -0.50257897      -0.05295877       0.15753741
H        1.65167279       5.31258334      18.30704187      -0.34087771      -0.30102075       0.06741092
O        1.01468452       7.55002043      16.21204371      -0.44198664      -1.81663684       1.00062719
H        1.46928056       8.19736923      15.65315654       0.33691721       1.08277262      -0.32717868
H        1.03910985       6.77114447      15.60230282      -0.29080751       0.17373049       0.03005032
O        0.39994329       4.18989388      19.19037937       1.25573783      -0.98652241       0.71990269
H        0.37972720       3.31002222      18.68713342      -0.01995447       0.43426955       0.21772269
H        1.05863829       3.97687326      19.93101322      -1.16365954       0.39849085      -1.10715894
O        0.35939123       1.58704118      17.97324056       0.46466422      -0.16228298       0.61696411
H        7.91580937       1.45959129      17.54545315       0.34480694       0.32797489      -0.64171071
H        1.06182684       1.42514841      17.28066041      -0.64848690       0.41014160       0.30640915
O        4.41960969       8.54303399      14.29670268       0.76127203       0.18670588       0.79037768
H        5.17978998       8.59896805      15.00686158      -0.94909853      -0.02019306      -0.45430983
H        4.88696744       8.78507247      13.47332187      -0.15447318       0.21503969      -0.48756189
O        4.65465771       4.78353376      16.65749056      -0.42560958       1.38968273       0.26318634
H        4.53221936       3.92071354      16.26529393      -0.41775110      -1.00851979      -0.12223117
H        3.81275529       5.06027887      17.16765211       0.57916551      -0.53401901      -0.32380541
O        5.05848103       5.92919479      14.21074231      -0.87393884      -0.68814404       0.65132388
H        4.69141000       5.59370587      15.11168412       0.77801724       0.68702715      -0.67985634
H        4.49189567       6.68895533      13.92254560      -0.03251261      -0.09975556       0.39024197
O        4.26232250       5.85857771      20.16195425       2.39871127       1.13318393       0.71444093
H        3.65303393       5.96780647      19.44587661      -1.75301905      -0.19374720      -1.42567536
H        4.89655785       6.60161054      19.88989688      -0.43753840      -0.77558618       0.52938773
O        1.79611785       9.32959628      14.63407555       1.72929290       0.80046248      -0.99249638
H        1.98441023       0.50911870      15.03334490      -0.10916728      -0.73445796       0.13184551
H        2.74719598       9.08435344      14.31498410      -1.01367997       0.03681901       0.27362537
O        0.89279411       5.97896484      13.87905489       1.42058480       0.92386773      -1.76138285
H        1.49925153       6.13965508      13.00768605      -1.29419602      -0.48506638       1.86280721
H        0.81119631       4.97612437      14.03908661      -0.40358123      -0.07391416       0.01041491
O        7.36305224       5.14366335      16.42580550       0.05385069       0.47167787       1.02864228
H        6.39851177       4.93815754      16.61041755       0.63516362       0.36692925       0.31769671
H        7.79000906       5.51003171      17.24878484      -0.84452664      -0.48491658      -0.76226653
O        8.33950262       8.97542833      19.42082350       0.20364740      -2.20922339       1.09109524
H        0.02818473       0.09034908      19.06401047       0.55486825       1.96750596      -0.97260008
H        0.76507939       8.52173744      19.31271091      -0.60793317       0.29397210      -0.00624550
O        5.47393278       3.49116009      19.69609733      -0.98172717       0.62938278      -0.06870440
H        6.37461396       3.47093757      20.00666822       1.04351892      -0.00972431       0.20397279
H        5.16692098       4.46254986      19.77772447      -0.11953627      -0.77424948       0.02882967
O        6.65796751       1.51907540      16.46668855       0.69988648      -0.69932499       1.05969483
H        5.80446546       1.70436572      16.97483258      -0.71671877       0.17874776      -0.07707549
H        6.61598816       1.62874772      15.50521384      -0.07087233       0.45837284      -0.91844726
108
Lattice="8.443 0.0 0.0 0.0 9.749 0.0 0.0 0.0 35.14984319" Properties=species:S:1:pos:R:3:forces:R:3 bias_charge=0.25 work_function=5.367057183719947 energy=-586.7526002274948 pbc="T T F"
Pt       7.03577500       5.77911800       6.50000000      -0.02179247       0.08127818       0.04325132
Pt       1.40711200       5.77911700       6.50000400       0.07407496       0.13992668       0.04512327
Pt       7.03577500       0.90461600       6.50000500       0.07940085       0.00080863       0.08273336
Pt       4.22144400       5.77912000       6.50000600      -0.00169030      -0.01874664       0.17109051
Pt       5.62860700       8.21637200       6.50000900       0.05762177      -0.00802024       0.15505938
Pt       1.40711200       0.90461500       6.50000900       0.01155354      -0.05242134       0.06247781
Pt       8.44294300       8.21637100       6.50001100       0.00031636       0.04421273       0.08881702
Pt       4.22144300       0.90461400       6.50001200       0.11854071       0.03295004       0.10685354
Pt       2.81428000       8.21637000       6.50001200      -0.02993320      -0.06098952       0.15786675
Pt       5.62860600       3.34186500       6.50001600      -0.09258448       0.02887936       0.08295849
Pt       8.44294300       3.34186800       6.50001800      -0.11208227      -0.06469440       0.17354625
Pt       2.81428000       3.34186700       6.50001900       0.09058822       0.01143630       0.17301847
Pt       2.81428000       6.40710800       8.77208900       0.26251550      -0.04893628       0.23372244
Pt       8.44294300       6.40710800       8.77208900      -0.10437188      -0.06561563      -0.31878481
Pt       5.62860600       6.40711000       8.77209100      -0.34677501      -0.18382510       0.12714576
Pt       2.81428000       1.53260500       8.77209500      -0.20204501       0.31580540      -0.66429638
Pt       8.44294300       1.53260400       8.77209600      -0.00172624       0.10048825       0.02480373
Pt       4.22144300       8.84436100       8.77209600      -0.13035144      -0.16172389      -0.03441475
Pt       5.62860700       1.53260300       8.77209800      -0.29696486      -0.25965712      -0.47865421
Pt       1.40711200       8.84436000       8.77209800       0.05523219      -0.05660605      -0.09004084
Pt       4.22144400       3.96985500       8.77210100      -0.05610330       0.06739897      -0.08871215
Pt       7.03577500       8.84436000       8.77210200      -0.21088504      -0.07692014      -0.07389442
Pt       1.40711200       3.96985800       8.77210300      -0.01212603       0.20063497      -0.24211185
Pt       7.03577500       3.96985700       8.77210700       0.52983444      -0.17607345       0.13589133
Pt       4.20163830       6.87108305      11.07570900       0.26916747       0.39090787       0.25491526
Pt       5.69096212       4.37079349      11.04239747       0.10464584       0.36357871      -0.03777037
Pt       1.38538398       2.29396788      11.00453099      -0.30878669      -0.39164685       0.12856376
Pt       8.42344948       9.43607520      11.00199580      -0.02851097      -0.22360889       0.22246105
Pt       7.01521263       6.93417176      11.00042769       0.14789457       0.43625530       0.11871194
Pt       4.17302879       2.15698208      11.01824272       0.26902811       0.17256821       0.35019907
Pt       2.86689842       4.56701470      11.09641289      -0.33861228      -0.18386560      -0.19153306
Pt       1.38711588       6.96056149      11.00099047       0.27215674       0.54239906       0.05047206
Pt       5.56742660       9.31944098      11.07206027       0.14606696      -0.09142657      -0.16853732
Pt       2.77266928       9.66803952      10.97110392      -0.18941571      -0.74110877       0.18321126
Pt       6.90949715       1.90938175      11.01812440       0.66293085       0.48374250       0.20453142
Pt       0.07567070       4.70141380      11.10523379      -0.56376458      -0.55685592      -0.20985471
O        7.76699046       6.85275440      15.01434679       0.27340694      -1.49169505      -0.58355245
H        6.90605213       6.74555716      15.46114100      -0.71264859      -0.13621948       0.86808526
H        7.73767424       6.10773292      14.36569624       0.11045141       0.77668545      -0.11594088
O        5.48389054       0.27656278      20.70900531      -0.06171564       0.23145038       0.09659038
H        4.73950128       9.40337219      20.46056046       0.03260396       0.31587397       0.41604609
H        5.13641374       1.09686583      21.12441028      -0.11515380      -0.60798172      -0.27580360
O        0.93788381       2.16431727      20.22794989       0.19268577      -0.27471134       1.01789836
H        0.88043476       1.64810047      19.39714906      -0.13762873      -0.33500188       0.61152729
H        0.82384760       1.57884906      21.04057431       0.17794366       0.60245785      -1.59568549
O        3.70875012       7.98681159      20.01227808      -0.33198873       0.08054973       0.94950262
H        3.07556762       7.46858600      20.64317508       0.49346131       0.89033131      -0.88738929
H        4.39844203       7.35550978      19.75615618       0.39430069      -0.41629211      -0.10540392
O        6.84954949       2.75723164      17.31623770      -0.73527800       0.20713262      -0.16864654
H        6.00658385       2.72547758      17.85547902       0.27473931       0.20983672      -0.68730056
H        7.44236582       3.30105830      17.87242895      -0.08098085       0.33942566       0.37476971
O        2.01643204       8.42557321      18.01432189      -2.21057938       0.48488753      -1.78747740
H        1.11400851       8.76843714      18.24037253       0.82796224      -0.39118456       0.06651560
H        2.58331131       8.50525012      18.77921501       0.99227400      -0.02874362       1.33028386
O        8.08367267       9.40347582      15.09296450       0.32776184      -1.22451030       1.11985274
H        7.69478171       0.11304651      14.35630348      -0.61144452       0.32906924      -0.83521317
H        7.90864040       8.39087650      15.04480332       0.39482986       1.59432111      -0.57966238
O        3.88103562       4.69731869      14.42626924       0.58468818       0.20056631       0.29948944
H        3.69259160       4.18022503      13.62358106      -0.28179625      -0.26400859      -0.16171360
H        3.04441635       4.86419931      14.94920357      -0.07327823       0.08521305      -0.50323373
O        7.50958498       3.91009474      19.65882709       0.24594966       0.03950494       0.59217814
H        8.24915590       3.36136010      20.11532663      -0.96150670       0.36782557      -0.45631468
H        6.63932024       3.73423692      20.12183921       0.47531567      -0.63848088       0.09469517
O        5.06750539       8.94922047      17.10075883       0.25514740      -0.79183674       1.84457813
H        5.96571293       9.08850564      17.50512692      -0.13629105       0.78680640      -0.17663969
H        4.99048249       9.46849849      16.30452076      -0.17457777       1.02960829      -1.52370445
O        1.97919401       5.84741689      15.76306638       0.09076658      -0.04060564      -0.82521451
H        2.06978092       5.63490654      16.69977074      -0.09450936       0.02051714       1.34105272
H        1.02475481       5.83077241      15.56533427      -0.24518395       0.18952085       0.17583352
O        7.57484492       7.64079119      21.17584319       0.64887301       1.05489128      -1.24193507
H        7.67122393       8.38529373      20.49838613      -0.59405626      -0.96432084       1.06223648
H        7.23344408       6.89455424      20.63356384      -0.35821580       0.28641344      -0.10492171
O        4.31395894       0.76792587      14.89370625      -0.52885210       0.21949644       0.24911519
H        5.13839740       1.22198390      14.60288390      -0.56824387       0.51816504      -0.02894089
H        3.52648209       1.38298827      15.04094672       1.35995465      -0.74446091      -0.18262676
O        4.42381128       7.01528595      13.20042034      -0.41436852      -0.04815327       0.72190943
H        4.26324807       6.10255709      13.66706574      -0.01976199       0.53903662      -0.44279340
H        3.72233050       7.65822515      13.64890795       0.18568321      -0.43683450      -0.57575907
O        7.00520034       0.51808306      18.53674845       1.28618982      -2.11536538      -0.63691980
H        7.05533463       1.37788039      18.08996003       0.06375233       0.62693252      -0.38849130
H        6.51381832       0.55205914      19.36134004      -0.79312493       0.31478879       1.20447514
O        1.72222937       0.99992400      16.27042485      -1.09733024      -0.47094576      -0.39848162
H        0.79527263       0.84863763      15.84055844       1.55731848      -0.19666132       0.77995115
H        1.89194290       0.14607132      16.77067168      -0.06160213       0.65783577      -0.28774832
O        2.34418772       8.14914855      14.24067698       0.05544230      -1.05742106       1.02276427
H        2.22260583       7.48558101      15.00786615       0.05320114       0.79347950      -0.96750276
H        2.10333820       9.01332676      14.62578060       0.06186227       0.15231227      -0.03684256
O        4.89036144       3.53272948      20.60481637      -0.21384932       0.26626865      -1.23729848
H        4.56449081       3.03770634      19.77393638       0.27609929       0.71508530       0.99662157
H        4.77627220       4.50841208      20.41170750      -0.15934401      -1.02995259       0.02368184
O        5.49603570       6.51689518      16.68666478       0.79538940       0.08882387      -0.04973975
H        4.81626266       6.14388572      16.12318397      -0.52880117      -0.44969283      -0.27385426
H        5.24206228       7.49762826      16.82092304      -0.20776597      -0.06099552      -0.20065732
O        2.19987800       5.26031120      18.63119810       0.13239320      -0.76733272      -0.61422535
H        2.05550490       5.93223931      19.31364577      -0.19676384       0.52123994       0.40297305
H        1.90587010       4.43473861      19.05902724       0.01956139       0.09493223      -0.06429710
O        6.95381702       2.25861989      14.57721865       0.22068395      -0.67780107      -2.04645380
H        6.79298615       2.65296441      15.42328773      -0.04059101       0.79316397       1.69422448
H        7.35223505       2.93206685      13.98795967      -0.30112875      -0.18576449       0.22243617
O        5.88842624       6.13047820      19.33124093       0.60947332      -0.76768717       2.38071975
H        5.79701551       6.24844214      18.39076680      -0.13242313      -0.17779106      -1.86568043
H        6.47560227       5.32442042      19.48099337      -0.24284307       0.98531353      -0.55372755
O        1.65800598       6.86914161      21.01353350       0.73090017       0.06835725      -0.75386692
H        1.70214699       6.21821584      21.70827718      -0.22388528      -0.58867291       0.79101958
H        0.75151182       7.26660616      21.00422418      -0.51011314      -0.08024670       0.50880240
O        4.24671332       1.93468700      18.28453687       0.97169634      -0.69437108       0.49440883
H        3.69399578       2.31723282      17.58156919      -0.01491781      -0.79215720      -0.26571861
H        4.57600410       0.97917644      18.10754333      -1.03558784       1.56891807      -0.27734807
108
Lattice="8.443 0.0 0.0 0.0 9.749 0.0 0.0 0.0 34.00290186" Properties=species:S:1:pos:R:3:forces:R:3 bias_charge=0.45 work_function=4.756433390436746 energy=-587.3323159776487 pbc="T T F"
Pt       7.03577500       5.77911800       6.50000000      -0.01977464      -0.04186125       0.12878472
Pt       1.40711200       5.77911700       6.50000400      -0.07997673       0.03845500       0.02441112
Pt       7.03577500       0.90461600       6.50000500       0.05943006       0.01464188       0.06454078
Pt       4.22144400       5.77912000       6.50000600       0.08504178       0.09543899       0.05715505
Pt       5.62860700       8.21637200       6.50000900      -0.10331936      -0.06463624       0.13926829
Pt       1.40711200       0.90461500       6.50000900       0.05367029       0.03374544       0.17824707
Pt       8.44294300       8.21637100       6.50001100       0.03950339      -0.02399873       0.10787567
Pt       4.22144300       0.90461400       6.50001200      -0.17231350       0.01699547      -0.00298251
Pt       2.81428000       8.21637000       6.50001200       0.01948012       0.01171654       0.11675688
Pt       5.62860600       3.34186500       6.50001600       0.04363768       0.09334746       0.05457302
Pt       8.44294300       3.34186800       6.50001800      -0.06679326       0.02536978       0.23152102
Pt       2.81428000       3.34186700       6.50001900      -0.05929039      -0.03694842      -0.03589644
Pt       2.81428000       6.40710800       8.77208900       0.21739712       0.20672266      -0.46524776
Pt       8.44294300       6.40710800       8.77208900      -0.02592839      -0.04148020       0.49451096
Pt       5.62860600       6.40711000       8.77209100      -0.06602852      -0.20554318       0.09769775
Pt       2.81428000       1.53260500       8.77209500      -0.27456441      -0.18137654       0.47218407
Pt       8.44294300       1.53260400       8.77209600       0.07764683       0.04711553       0.33636062
Pt       4.22144300       8.84436100       8.77209600      -0.05615397       0.01889025       0.16820893
Pt       5.62860700       1.53260300       8.77209800       0.27271765       0.10918173       0.25142428
Pt       1.40711200       8.84436000       8.77209800      -0.01696634      -0.00774433       0.20613871
Pt       4.22144400       3.96985500       8.77210100       0.69412771      -0.22374127      -0.10431932
Pt       7.03577500       8.84436000       8.77210200       0.22209828       0.10705034      -0.18978132
Pt       1.40711200       3.96985800       8.77210300      -0.58101321      -0.31639620       0.06998671
Pt       7.03577500       3.96985700       8.77210700       0.16276858      -0.09993204       0.42441901
Pt       4.24451612       6.99868460      11.08099204      -0.14459967      -0.23298440      -0.10124339
Pt       5.66879127       4.42010200      11.13961230      -0.20845987       0.05631947      -0.61719620
Pt       1.46676371       1.95380807      11.21778255      -0.04596352      -0.15230141      -0.83875169
Pt       8.41989368       9.47850716      11.08313748       0.24867300      -0.50265194      -0.39610379
Pt       6.96001031       7.01629001      11.01478258       0.78911180      -0.26114128      -0.17967876
Pt       4.18081882       1.91436585      11.07769222       0.51784280       0.38911561      -0.31785383
Pt       2.83807725       4.52701542      10.88999676       0.39582240       0.31479105       0.76990300
Pt       1.52179763       6.91498724      11.05618639      -0.73583916       0.21295682      -0.28377876
Pt       5.71142484       9.43072828      11.06937501      -0.65482542       0.08150712      -0.23876500
Pt       2.81845727       9.28578019      11.13152492       0.07025983       0.25692353      -0.33902999
Pt       7.08423057       2.13284863      11.16782713      -0.44319694      -0.19973270      -0.61553144
Pt       0.09635551       4.36448143      11.14994202      -0.28446562       0.40144631      -0.65000216
O        7.78357544       3.30573949      15.45770558       0.02763288      -1.75971698      -1.06327738
H        0.21554912       2.82934122      15.41256637      -0.65372157       0.40666960       0.13308365
H        7.15697997       2.58203678      15.00072605       0.54196085       1.10138400       0.81222828
O        7.34987142       8.28935779      19.47096653       0.12484897       1.10087135       0.48427271
H        7.51560696       9.21255977      19.10796910      -0.28009861      -1.04007557       0.60007122
H        7.34567402       8.46464189      20.45601027      -0.02397104      -0.29254869      -1.15389082
O        1.39053788       1.88905658      13.45336384      -1.84478439      -0.81995800      -0.57324907
H        1.77863433       1.00802193      13.62599589       0.23026054      -0.36916105       0.24295150
H        2.10154917       2.49463764      13.63978513       1.86229666       1.11538171       0.70591002
O        6.70763336       8.88274680      14.98135925      -0.85912617      -0.48639640      -1.83045648
H        5.96403339       9.08955761      15.59218489      -0.54806316      -0.36098828       0.89206803
H        7.52795201       9.18098657      15.35645167       1.62304925       0.44305966       1.04072504
O        4.67851068       9.22746921      16.51002647      -0.39047050      -1.28066774      -1.57253828
H        4.60785138       0.31071128      16.97104001       0.12145647       2.00837328       0.82191226
H        4.53371587       8.58266112      17.23237011       0.01844320      -0.70631369       0.50227386
O        0.57503778       6.51009909      16.58620922       0.46982806      -0.41541709       1.22880869
H        8.07028564       6.33606551      16.67183093      -0.50204520       0.19420414      -0.44185357
H        0.90753994       5.91737012      17.41290710      -0.00216099       0.22827094      -1.03030313
O        0.66353562       9.28714407      16.41373084       1.29864544      -0.35645818      -0.75364751
H        1.44755865       9.49423604      15.73842015      -1.16045664      -0.25331044       0.57949787
H        0.84943593       8.30274001      16.54576639      -0.70624231       0.71323575       0.20604267
O        4.68260710       1.68057153      17.82642420       0.09419778      -0.38675729       1.73930107
H        5.59679945       1.95578276      18.02015372       0.25793143       0.35134239      -0.26971479
H        4.40679090       1.32962238      18.77169278      -0.52074379       0.34145925      -0.94854175
O        5.96062688       1.58926557      14.25059916       0.31563094      -1.59440694       0.83464120
H        6.10566579       0.55317325      14.30846842       0.08147509       1.55520776       0.16941147
H        6.36013648       1.75068950      13.37730225       0.02327999       0.37942428      -1.11169241
O        4.74678023       5.57878400      14.51196520      -1.98811661       1.59122865       2.57231385
H        5.02300870       5.85134922      15.48216073       0.45050413      -1.02087895      -1.62981833
H        3.77078906       5.99924391      14.68826966       1.72362747      -0.76842561      -1.18598016
O        3.30968348       3.85676829      17.17297884       0.88158614      -0.83304780      -0.43763972
H        3.33876120       3.75342234      16.17830795      -0.21433023      -0.25143314       0.71528302
H        3.78280997       2.97696004      17.46578558      -0.64208600       1.06078485      -0.26020208
O        2.25005301       7.04372791      19.71331449       0.90670463      -0.35045020       0.28545811
H        1.53132249       7.46582830      19.23097235      -0.47604431       0.26355987      -0.19186530
H        2.18266444       6.09253196      19.46470539      -0.43345696       0.10528462       0.07040464
O        7.52420364       1.42368571      19.75474467       0.17475024       0.60604170      -1.79109081
H        7.57979624       2.24808349      19.18464985      -0.59021788      -0.36266436       0.30478715
H        7.61768335       1.80915627      20.61948054       0.09055149       0.16888989       1.30905331
O        0.28422947       4.80226173      13.33101231       0.30845608      -0.93337855       0.74239378
H        8.37684040       5.69904055      13.40478153      -0.73332428       0.80600080      -0.02493187
H        8.26017552       4.27430086      14.06014893       0.09117672       0.08207514      -0.40064451
O        5.47486801       5.54741163      17.19474376      -0.31826262       0.78534248       1.07299059
H        5.13656820       6.27952729      17.84542956       0.24045749      -0.30468816      -0.91260750
H        4.70371666       4.92556508      17.26950071      -0.57465181      -0.54199740      -0.31385282
O        2.63907116       9.35693106      14.70561925      -0.32548728      -0.15549258      -0.05583762
H        2.57961138       8.37657969      14.57822679      -0.28105679      -0.09414457      -0.65150983
H        3.29365301       9.36881639      15.43685300       0.90303092       0.36680685       0.24244667
O        4.60035097       7.59843148      18.54410148      -1.27381432      -0.53791462      -0.57169073
H        5.48971696       7.65717710      18.89980921       0.89286748       0.47478077       1.35073605
H        3.83663095       7.32607587      19.16195363       0.49364688       0.45073600      -0.10210696
O        1.52266152       1.44484730      18.23896707      -1.05754330      -0.06588773      -0.00082352
H        1.27544267       0.72198937      17.60316981       0.37736390      -0.12719145      -0.23870716
H        0.69621028       1.40084373      18.77768027       0.22738866       0.24189161       0.24788246
O        7.11347132       3.81877374      18.12926579      -0.92209624       0.87816470       0.75655628
H        7.36654583       3.60144136      17.20857724      -0.02580346       0.02892041      -0.57452656
H        6.36429508       4.60115042      18.01415236       1.46585747      -1.36732211      -0.31997658
O        3.59929670       2.90228106      14.47278921      -1.13527437       2.36491275       0.20527044
H        4.00553550       3.83709214      14.39075205       0.11575950      -1.27246863      -0.20255864
H        4.29660167       2.24069381      14.46423004       1.26711728      -0.40204668      -0.25867467
O        1.13122028       4.84557095      18.44963287      -2.37932582       1.49997675       1.33777405
H        1.59594709       4.11746384      18.08059629       1.49924690      -1.67857081      -1.05549682
H        0.14801572       4.53200464      18.55673419       0.98599640       0.10993960      -0.16049628
O        6.95167597       6.92222114      13.23223203       0.59506232      -0.05215266      -0.26909860
H        6.07898374       6.49080052      13.31902142      -0.61930692      -0.36803159       0.55987474
H        6.87342583       7.79455592      13.70449112      -0.12864217       0.17785132       0.31499264
O        3.37578902       0.98109789      20.02890186       1.05676360       0.88568194       0.10888861
H        2.49157018       1.24751499      19.70026767      -0.07275492      -0.46342415      -0.41825498
H        3.33611127       0.14578111      20.49258604      -0.26997373      -0.59870128       0.29593521
O        2.27017672       6.64258889      14.61304253       0.83854710       2.00663188       2.75338229
H        2.02792719       6.08365357      13.93223642      -0.93948162      -2.13644215      -3.25329348
H        1.53703446       6.50909860      15.28483973       0.11404492      -0.00997506       0.33812695
108
Lattice="8.443 0.0 0.0 0.0 9.749 0.0 0.0 0.0 34.058047619999996" Properties=species:S:1:pos:R:3:forces:R:3 bias_charge=0.5 work_function=4.556381954849059 energy=-586.301166639263 pbc="T T F"
Pt       7.03577500       5.77911800       6.50000000      -0.13371230      -0.10845109       0.08092206
Pt       1.40711200       5.77911700       6.50000400      -0.03390729      -0.14468070       0.14189441
Pt       7.03577500       0.90461600       6.50000500       0.27553989      -0.01212576       0.00628443
Pt       4.22144400       5.77912000       6.50000600       0.03658520      -0.03747313       0.17136684
Pt       5.62860700       8.21637200       6.50000900       0.06403890      -0.12105707       0.10503964
Pt       1.40711200       0.90461500       6.50000900       0.07268663      -0.01007518       0.12775906
Pt       8.44294300       8.21637100       6.50001100       0.06437391      -0.05925636       0.05769956
Pt       4.22144300       0.90461400       6.50001200      -0.00597780      -0.00199430       0.17776974
Pt       2.81428000       8.21637000       6.50001200       0.00609211      -0.02818600       0.12888775
Pt       5.62860600       3.34186500       6.50001600       0.06709527       0.04197909      -0.08904849
Pt       8.44294300       3.34186800       6.50001800       0.10093021      -0.09457145       0.07040201
Pt       2.81428000       3.34186700       6.50001900       0.05049681      -0.04504746       0.13441139
Pt       2.81428000       6.40710800       8.77208900       0.11245265      -0.03247613       0.00454733
Pt       8.44294300       6.40710800       8.77208900       0.35519324       0.34595609      -0.11443166
Pt       5.62860600       6.40711000       8.77209100      -0.00618846      -0.08968013      -0.39407488
Pt       2.81428000       1.53260500       8.77209500       0.00402304       0.25661609      -0.18036726
Pt       8.44294300       1.53260400       8.77209600      -0.23542067       0.44082554       0.13453223
Pt       4.22144300       8.84436100       8.77209600      -0.28920921       0.33911271      -0.49332078
Pt       5.62860700       1.53260300       8.77209800      -0.48882867       0.22639239      -0.27570362
Pt       1.40711200       8.84436000       8.77209800      -0.14836076       0.03320495      -0.38608810
Pt       4.22144400       3.96985500       8.77210100      -0.19860902       0.02467550       0.14476871
Pt       7.03577500       8.84436000       8.77210200      -0.21518237       0.31999660      -0.36361557
Pt       1.40711200       3.96985800       8.77210300       0.05040783       0.32786809       0.34797621
Pt       7.03577500       3.96985700       8.77210700      -0.01817190       0.39235966       0.02012018
Pt       4.31757938       7.25644709      10.99058563      -0.77901529      -0.24580755       0.31858517
Pt       5.53163771       4.71443163      11.05483952      -0.04777065      -0.09246337      -0.32326690
Pt       1.28752632       2.23554294      11.02985513      -0.34548936      -0.17656336       0.30800619
Pt       8.38702700       9.60331736      10.96633107      -0.14205820      -0.39017303       0.14499812
Pt       6.98896515       7.18795862      10.96189693       0.34735740       0.04944254       0.22685720
Pt       4.01895868       2.31011876      11.11205824       0.79892245      -0.02045023      -0.49323955
Pt       2.74240482       4.72785132      11.11832404       0.28729414      -0.16260527      -0.33748993
Pt       1.55247478       7.19466772      11.06324316      -0.81338554      -0.12415871      -0.25184158
Pt       5.52135949       9.66838894      10.99838926       0.22118674      -0.00777780       0.24288874
Pt       2.69731784       9.63217533      11.00894585       0.67432080      -0.27643424       0.18029942
Pt       6.84787385       2.34232643      10.99631910       0.29379807      -0.39673968      -0.02616570
Pt       8.36020232       4.87194520      11.03081488      -0.00452092      -0.32612900      -0.27335812
O        8.06241243       4.28907850      20.08404762      -1.01694578       1.48236133       1.15307133
H        7.70949777       4.62486619      20.96253904       0.76572092      -0.37941036      -1.09050563
H        0.21498068       3.55609823      20.28855816       0.79800926      -0.86322349       0.14382501
O        2.34946480       7.18229667      19.32776599       1.03960656      -1.04584277       0.87012400
H        2.63411554       6.40034873      18.75916539      -0.31402948       0.56688486       0.50021418
H        2.72268645       6.95891293      20.23791407      -0.59580572       0.30568704      -1.32664538
O        8.11256311       6.96179741      18.48433339      -0.16588825      -0.30929723      -0.09819284
H        0.30979769       6.51886465      19.07254055      -0.05544526      -0.09088305       0.23344651
H        0.18505632       7.71770237      18.17489697       0.35320449       0.82529541      -0.34150696
O        1.29298831       2.10531811      19.85620098       0.62799824      -0.37227070      -1.41864800
H        1.84171213       1.61064624      20.48086217       0.05158087      -0.02196717       0.35029739
H        1.73559923       1.84058383      18.94034147      -0.67102680       0.49240715       1.11963388
O        7.85175391       1.53840550      14.32854597      -0.20191910       0.10226044      -0.66880416
H        7.65439114       1.93355021      15.19002764      -0.48257785      -0.58329423       0.54890434
H        7.46387275       0.58751760      14.14493358       0.31955833       0.62238879       0.61483298
O        4.53680064       2.95842594      15.56360807      -0.82103519      -0.47656734      -0.46969940
H        5.36568414       2.83284578      16.03787471       0.72053941      -0.39216368       0.41535161
H        4.45945836       2.17876374      14.88224946      -0.02010838       0.36324221       0.95830277
O        7.26114819       2.71481976      16.95740256       0.38083957       1.21935130      -0.98308881
H        7.66226496       3.54431576      16.57215388       0.00566423      -0.61366852       0.30663226
H        6.73275712       3.10424667      17.68284471      -0.31641417      -0.41191113       0.66987591
O        5.46455998       4.68511886      14.03388159       1.10767397       3.41317481      -1.30144198
H        5.09034006       4.10181239      14.71004549      -0.28771043      -1.22038459       1.36710577
H        5.59232775       5.67229007      14.44926268      -0.25067183      -2.06481444      -0.49582661
O        3.46495068       8.43264324      15.20402491      -0.54588355      -0.64780061      -0.67230636
H        3.40835105       8.47923357      16.17376390       0.09824833       0.39271079       0.56556882
H        2.54956904       8.03618601      14.85446042       1.25004890       0.12095774       0.42521858
O        7.08362035       8.87819439      13.91751665       0.00451160      -0.97107303       1.33632679
H        6.70359876       8.16403364      14.58237473       0.31985519       1.12242323      -1.07252609
H        6.82376742       8.54018425      13.03595772      -0.06795632       0.07249392      -0.43838039
O        0.68259336       5.27965137      16.26216950      -0.63066316       1.33260838      -0.27101146
H        0.31370380       6.00861657      16.87267178       0.29997385      -1.14635029      -0.44243615
H        0.88732740       5.80836437      15.43076173      -0.19399943      -0.36966109       0.67172294
O        8.26379647       4.81268466      13.17400422      -0.10864332      -0.39050496       0.87079052
H        0.21567942       3.94078377      13.44055782      -0.41691862       0.46036984      -0.18218862
H        7.30017129       4.81183221      13.46118102       0.21107158      -0.39282973      -0.09327225
O        1.42558485       7.22170692      14.40611473      -0.07135950      -0.93770849      -0.81445790
H        0.78106209       7.84704891      14.06348320      -1.15636071       0.95743645       0.02534265
H        1.57355733       6.70798688      13.55865158       0.43341445       0.01053122       0.34379934
O        0.38013109       9.61803106      16.97764209      -1.16396740      -0.73973876       0.49692487
H        1.04556599       0.55025087      17.02429338       1.25407922       0.82291460      -0.21330342
H        8.13439746       0.27655658      17.54789773      -0.09035086      -0.43122659      -0.41053923
O        5.58757817       6.15929537      17.94821909      -0.00225405       0.20766351      -0.12244948
H        5.63531898       6.77030765      18.70606284       0.15389811      -0.23233092      -0.15741569
H        4.70359860       5.77147328      18.01910852      -0.40768872      -0.30984371      -0.08990071
O        2.50098086       1.61044051      17.47553392       2.54973257       0.55497880       0.55060248
H        3.03831875       2.47375911      17.42991493      -1.10059632      -0.83536535      -0.36977255
H        3.29556197       0.96178264      17.63117395      -1.38134165       0.22522785      -0.12501175
O        3.98491746       0.96405858      14.04999961       1.05356743      -1.42545067      -1.86649581
H        3.77515932       0.03106607      14.44633906       0.07207976       0.74186160       0.24173952
H        4.64422973       0.69614449      13.26979935      -1.42559153       0.79696574       1.34003895
O        6.02999595       2.81411309      19.48608518       1.02092407      -1.11988440      -1.06650838
H        5.17594822       3.02677488      19.82332408      -1.16599274       0.58634882       0.61790028
H        6.73005076       3.44768893      19.79957166      -0.14127269       0.19883421       0.05636869
O        1.48504195       2.27236200      13.32513426       2.08999133      -0.21861484      -0.05300414
H        0.60800848       1.96403711      13.85655025       0.12275903      -0.93902889      -0.29637762
H        2.34699830       1.68034680      13.47769392      -1.64153459       0.93659869       0.01624713
O        4.03207679       9.12404765      17.98269154       1.21810948       0.10799884       0.02591232
H        3.46401871       8.72837178      18.65326865      -0.79897778      -0.50658650       0.38916467
H        4.96787774       9.00953651      18.39941092      -0.81465637       0.70441794      -0.76795063
O        5.81123514       6.98882445      15.15861783      -1.09166120       0.46686223       0.60205846
H        4.84575382       7.32202224      15.13790778       0.51192305       0.39345717      -0.35966364
H        5.92814137       6.93811927      16.13629284       0.21521927      -0.52900492       0.33629147
O        6.51462332       9.24891913      18.84403177      -0.48540689       0.13885066      -0.48843592
H        6.95243611       8.44453680      19.17713912       0.65983435       0.21199786       0.26012883
H        6.80698748       0.33249999      19.25832271      -0.02566539      -0.27111523       0.42349612
O        2.82904701       4.72851916      13.32289627       0.58933347      -0.44265760       0.89189849
H        2.41308375       3.89418229      13.68147352      -0.09940737       0.12790118      -0.59415727
H        3.80749254       4.62531130      13.61887980      -0.33010696       0.55573270      -0.62622517
O        2.70329418       4.62432927      17.78071663       0.87981991       0.22509595      -0.49665111
H        2.11785797       4.68737830      16.97772140       0.02618502       0.51239940      -0.10178967
H        2.06119771       4.26499004      18.38406144      -0.59883780      -0.52352164       1.21960918
108
Lattice="8.443 0.0 0.0 0.0 9.749 0.0 0.0 0.0 34.86602125" Properties=species:S:1:pos:R:3:forces:R:3 bias_charge=0.5 work_function=3.9094330802206443 energy=-584.0284222999644 pbc="T T F"
Pt       7.03577500       5.77911800       6.50000000      -0.03435809       0.04598212       0.09914751
Pt       1.40711200       5.77911700       6.50000400       0.12535712       0.03551600       0.00042194
Pt       7.03577500       0.90461600       6.50000500       0.09181965       0.04049501       0.13649154
Pt       4.22144400       5.77912000       6.50000600       0.00324248       0.00940625       0.16117569
Pt       5.62860700       8.21637200       6.50000900      -0.03887037       0.01365211       0.17683592
Pt       1.40711200       0.90461500       6.50000900      -0.03492402       0.03921280       0.11593440
Pt       8.44294300       8.21637100       6.50001100      -0.07552162       0.06462780       0.07845277
Pt       4.22144300       0.90461400       6.50001200      -0.03457279       0.02250470       0.13077080
Pt       2.81428000       8.21637000       6.50001200      -0.04101297      -0.03253946       0.11911329
Pt       5.62860600       3.34186500       6.50001600       0.01845110       0.04919098       0.12879376
Pt       8.44294300       3.34186800       6.50001800       0.05233630      -0.04512748       0.15700593
Pt       2.81428000       3.34186700       6.50001900      -0.01573799       0.04870002       0.08213330
Pt       2.81428000       6.40710800       8.77208900       0.41282083      -0.10137763       0.62309905
Pt       8.44294300       6.40710800       8.77208900      -0.21520344      -0.19586403       0.06590650
Pt       5.62860600       6.40711000       8.77209100      -0.15186014      -0.07515864       0.37820778
Pt       2.81428000       1.53260500       8.77209500       0.17794640       0.01752027       0.05744283
Pt       8.44294300       1.53260400       8.77209600      -0.40037116      -0.00263734      -0.27880990
Pt       4.22144300       8.84436100       8.77209600       0.10380141      -0.37728054      -0.57777678
Pt       5.62860700       1.53260300       8.77209800      -0.04071787       0.16736883      -0.19581808
Pt       1.40711200       8.84436000       8.77209800       0.66813919      -0.13209089      -0.55618927
Pt       4.22144400       3.96985500       8.77210100       0.01566327      -0.09823534       0.26210661
Pt       7.03577500       8.84436000       8.77210200      -0.19862958      -0.28978320      -0.99898954
Pt       1.40711200       3.96985800       8.77210300      -0.35508164      -0.10346918       0.03226770
Pt       7.03577500       3.96985700       8.77210700       0.12822382       0.06369317       0.56549137
Pt       4.18385700       6.84214273      11.19360606      -0.00422012       0.46464823       0.09568079
Pt       5.58622841       4.57925032      11.06432730       0.46027269      -0.45419434      -0.32552460
Pt       1.34256070       1.94214461      11.00031470       0.57760667       0.40199048       0.37376376
Pt       0.01373466       9.27641517      10.90379915       0.17713639       0.75778114       1.27774640
Pt       7.05120399       7.03839466      11.08966237      -0.36434546      -0.62890040      -0.37046379
Pt       4.26222838       2.01564838      11.11918157      -0.20021621       0.31868499      -0.35461653
Pt       2.73949867       4.40531433      11.02459041       0.46398179       0.18267422      -0.17047378
Pt       1.37774355       6.95426655      11.02853744       0.46847418      -0.09149127      -0.15579606
Pt       5.68921650       9.39070539      10.95015992      -0.21009167       0.27754398       0.61023752
Pt       2.92588246       9.39429541      11.00418544      -0.71733834       0.10337786       0.16592719
Pt       7.01696032       2.09951105      11.08195655      -0.03962470       0.28072062      -0.16544592
Pt       0.01196529       4.47274187      11.16673695      -0.29651657      -0.00266673      -0.18974955
O        7.16602445       7.67353156      19.52066346       1.41150969      -0.72189093       1.51786637
H        7.51128921       6.74985048      19.78225740      -1.55881845       1.63973780      -0.99291370
H        6.37091235       7.72511711      18.92793525       0.60719529      -1.12265491      -0.24982802
O        6.91648341       4.81779897      18.99837204      -1.86531507       0.80799130       1.01366106
H        7.10394558       4.04629216      19.51977695       0.17611545      -1.04374645       0.70248953
H        7.67720467       4.97595327      18.47765148       2.36238201       0.49655981      -1.59836513
O        5.37267488       3.62119243      17.28769329       0.64684819       1.46631962       0.92688253
H        5.61387978       2.76616551      17.68696949       0.08084312      -0.30500726       0.02862408
H        6.07336363       4.26277808      17.74725585      -1.67122473      -1.39744285      -0.57127439
O        0.31908893       4.85078693      13.59393442      -2.47148041      -0.66818857      -0.98624594
H        1.17208293       4.90818626      14.04395690       1.46156446      -0.12581840       0.50650620
H        8.27675079       4.05741395      13.93177862       0.52797462       0.51045352      -0.10307768
O        1.40549172       8.01511569      17.22343073       0.35607240      -0.86361128       1.04421151
H        0.71358499       7.93271824      16.53289194       0.10242700      -0.18865468       0.40984393
H        1.43593307       7.13545711      17.72187598      -0.29731177       1.44548070      -1.28213637
O        5.20483552       9.66055633      13.97597514      -1.97135182       2.11458421       1.66614646
H        5.95175231       9.26818685      14.45875421       1.50088584      -0.23401981       0.62378300
H        4.75639732       0.44181454      14.75081020       0.84281511      -1.25225128      -1.90456484
O        0.51020176       2.33824667      16.58979362      -0.07186876       0.51142703      -0.15196138
H        1.01630263       1.55958212      16.88945290       0.71606214       0.06355516      -0.20232735
H        8.09999142       2.19795011      16.99320918      -1.14329182      -0.06193161       0.29170157
O        3.53914589       6.99300128      19.21852490      -0.19681091      -0.53256647       2.93764805
H        4.26768264       7.02887789      19.94857235      -1.38146132       0.21983547      -1.50799433
H        2.71320227       6.87833311      19.80931782       1.43533977       0.52139245      -1.01912237
O        2.56507196       4.83923601      15.01891471       0.88636962      -0.08854782      -1.12561730
H        2.13336884       5.14678906      15.81387609      -0.55645889      -0.08058735       0.95330636
H        2.60114764       3.83749060      14.98302532      -0.15332112       0.21961517       0.04262677
O        0.61445369       0.34395369      19.57828463       1.02738029      -2.46807989       0.06183563
H        0.98900119       9.27223653      19.06753985      -0.98957144       1.66488804       0.29180463
H        0.36965690       9.60086582      20.41211826      -0.05470290       0.75106031      -0.61043027
O        2.85978839       1.92214045      19.28650152       0.36449517      -1.70683637       0.76977303
H        2.13725366       1.30146088      19.66971488       0.37335429       1.54776545      -0.73838742
H        2.64743245       2.86609019      19.14915805      -0.71836687       0.37587329       0.07106156
O        5.26561268       6.07091839      15.32280897      -1.92722976       0.88054285       0.70266130
H        6.05438144       5.59351709      15.22104697       2.49598426      -1.27578734      -0.47976905
H        4.66125881       5.35481864      15.60389036      -0.44592031       0.02910005      -0.18686320
O        7.17424135       8.85234562      15.47210294       0.15987069       0.41287247       0.08708650
H        6.76120660       8.30888824      16.16194827      -0.33361888      -0.24717730       0.30046615
H        7.93956904       8.36952723      15.09614929       0.17836849      -0.35360534      -0.36868251
O        4.29733212       7.39905361      13.36795035      -0.20957563      -1.36770248      -0.01138333
H        4.71833493       6.72057337      14.00714108      -0.35904182       0.09050881      -0.40779670
H        4.69692317       8.25852031      13.69354871      -0.31488282       0.58811140      -0.67385756
O        5.44589446       8.22511846      17.59582525       0.81089182       2.19259419       1.54026099
H        4.59635073       7.82530483      17.82296548      -0.55752874      -0.10261399       0.07446351
H        5.54922129       9.04383449      18.24729968      -0.46529590      -1.39505046      -1.80228917
O        5.03196814       2.28932580      20.89202125       0.98039913      -0.92839896      -1.05934909
H        5.08679331       2.72410331      21.73558691      -0.43947782       0.45756342       0.81346588
H        4.13749691       2.21701992      20.50065232      -0.71666419       0.42615339       0.02673829
O        5.95239238       3.17721164      14.73608761       0.77020992      -0.83877981      -0.07960041
H        6.50421893       2.37702045      14.95146112      -0.54291464       0.75880067      -0.14012180
H        5.95943858       3.16765702      13.76167881      -0.09623495      -0.00399017      -0.48760724
O        2.49069830       2.22350753      14.38080206      -1.47997944       0.85162362      -0.14532647
H        2.50746830       1.72457714      15.19983327      -0.27188390      -0.58469319       1.15358277
H        3.35241039       2.05359826      14.05478725       1.89019636      -0.10927354      -1.24660431
O        2.88977576       4.51971245      18.41693267       0.93473663      -0.42141603       0.08320055
H        3.77820101       4.21365020      18.05558258      -0.26374277      -0.49087879      -0.55516858
H        3.23719779       5.35472771      18.80687021      -0.25599742       0.42218517       0.28559071
O        6.49545369       1.19000868      18.66537605       0.57305288      -0.07331603      -0.03084831
H        5.96676533       1.39750194      19.47111899       0.54152727       0.13431156      -0.00558737
H        7.45385292       1.03883255      18.94729967      -1.11093155      -0.08965052       0.00399097
O        0.92169519       7.72219434      14.19933324      -2.36008912       0.45478247      -0.72182431
H        1.74949210       7.65840932      14.65050138       1.64976110       0.39378579       0.01606468
H        0.84818131       8.46215230      13.53128758       0.85461546      -0.68544781       0.55630780
O        4.88318276       9.15173618      20.68612348       0.70316390      -0.01776028       0.22505222
H        5.86800852       9.06448481      20.75642900      -0.64590037      -0.20554128      -0.12252402
H        4.73290272       0.34579287      20.91586291       0.06996775      -0.08663351       0.08563527
O        0.61767734       5.16459094      17.06929924      -0.26100243      -1.63775771       0.15700033
H        1.30773550       4.93992492      17.73475049       0.62711047       0.36898037       0.26731305
H        0.56592520       4.19403888      16.76611793      -0.40051436       0.85570836      -0.19503920
O        2.76594683       0.94669358      16.74683491       0.54639943       0.45152826       0.55353628
H        3.09385938       1.28142799      17.63419802      -0.32997084       0.06743413      -0.36477933
H        2.55707772       0.02758707      16.92176692      -0.16543756      -1.15172031      -0.02251868
108
Lattice="8.443 0.0 0.0 0.0 9.749 0.0 0.0 0.0 34.8144012" Properties=species:S:1:pos:R:3:forces:R:3 bias_charge=0.65 work_function=5.203449808847351 energy=-585.60581573164 pbc="T T F"
Pt       7.03577500       5.77911800       6.50000000      -0.13147417      -0.03127350      -0.02173218
Pt       1.40711200       5.77911700       6.50000400       0.01723977       0.05392129       0.17808789
Pt       7.03577500       0.90461600       6.50000500       0.00825790       0.08210506       0.12957354
Pt       4.22144400       5.77912000       6.50000600       0.06087959      -0.00804644       0.09221456
Pt       5.62860700       8.21637200       6.50000900      -0.14116717      -0.04500396       0.09084073
Pt       1.40711200       0.90461500       6.50000900      -0.02246227       0.11739576      -0.02891106
Pt       8.44294300       8.21637100       6.50001100      -0.01582586       0.00619470       0.18843237
Pt       4.22144300       0.90461400       6.50001200      -0.04231884       0.00469824       0.16401608
Pt       2.81428000       8.21637000       6.50001200      -0.02080223       0.00134207       0.13879027
Pt       5.62860600       3.34186500       6.50001600       0.08267097       0.10304268      -0.01919202
Pt       8.44294300       3.34186800       6.50001800       0.02132198      -0.00011261       0.24963657
Pt       2.81428000       3.34186700       6.50001900       0.02709552       0.00040806       0.05327558
Pt       2.81428000       6.40710800       8.77208900      -0.07200865       0.34370388      -0.23632356
Pt       8.44294300       6.40710800       8.77208900       0.76022809      -0.24859557      -0.46827264
Pt       5.62860600       6.40711000       8.77209100      -0.07833650       0.32291033      -0.54158164
Pt       2.81428000       1.53260500       8.77209500       0.10176554       0.01581436      -0.24251001
Pt       8.44294300       1.53260400       8.77209600      -0.31907723      -0.23661475      -0.24210506
Pt       4.22144300       8.84436100       8.77209600       0.47163558      -0.02820285       0.12445534
Pt       5.62860700       1.53260300       8.77209800       0.45012459      -0.36645712      -0.66235359
Pt       1.40711200       8.84436000       8.77209800       0.06778213      -0.41283060      -0.40233621
Pt       4.22144400       3.96985500       8.77210100      -0.37862268      -0.14590494      -0.52582668
Pt       7.03577500       8.84436000       8.77210200      -0.10635394       0.16298281      -0.16512361
Pt       1.40711200       3.96985800       8.77210300      -0.41424897      -0.15383939      -0.62638612
Pt       7.03577500       3.96985700       8.77210700       0.61302327      -0.33105068      -0.06555820
Pt       4.24202946       6.90203963      11.01108057      -0.01968491       0.35597103       0.66261753
Pt       5.62376707       4.58399149      10.88614885       0.33272478      -0.14339492       0.27977206
Pt       1.40514610       2.10608694      10.97332711      -0.02052130       0.18621359       0.11780250
Pt       0.13150979       9.26274831      11.06080760      -0.89698715       0.20045027       0.04503604
Pt       7.10960645       6.95135280      10.91315400      -0.09700314       0.45928493       0.59336415
Pt       4.28188614       1.93537504      10.93025083      -0.54163531       0.76678372       0.86021428
Pt       2.74325559       4.62097557      10.92836647       0.37807206      -0.47028043       0.41617278
Pt       1.48429751       6.93101011      11.14827373      -0.40787355       0.52640924      -0.59785617
Pt       5.75294634       9.42317881      11.13657304      -0.12953428      -0.52969686      -0.70045058
Pt       2.79190388       9.48301367      10.98239727       0.18154652      -0.49016308       0.15655927
Pt       7.01738321       1.96273388      11.07720824       0.90329337       0.60990072      -0.38857825
Pt       8.41724001       4.44768681      11.08308226      -0.12896937      -0.23653424       0.15719901
O        7.01278681       1.81895267      15.83456264      -0.05413437       0.56083717      -0.02674629
H        6.73182872       2.47182127      16.51995144      -0.19625359      -0.10475529      -0.42758104
H        7.63369260       1.18481487      16.25985743       0.20146915      -0.45445802       0.06908143
O        5.22380785       0.41483031      14.55520129      -0.24137987       1.47239346       0.14464728
H        5.73079163       9.38391771      14.28649186       0.64140271      -0.68903474      -0.23789704
H        5.86974956       0.98793693      15.12360565      -0.21333215      -0.37698920      -0.10744748
O        8.35171455       9.54337132      16.96808392       1.03030354       0.20930585      -0.86309818
H        0.00364188       8.61759342      16.67327858      -0.09742720       0.17445750      -0.06397687
H        7.65482452       9.48448396      17.63877342      -0.50196694      -0.57024237       0.95613487
O        6.06225834       4.43983984      13.93167399      -0.38026126       0.69376485       0.11594463
H        5.48109884       5.19053692      13.61252510       0.47639111      -0.22126662      -0.01948639
H        5.92312326       4.48567467      14.90859855      -0.08588060      -0.50059856       0.15757736
O        8.04520695       3.70475557      18.55713341       0.87578072       0.63228664       0.75189371
H        0.07085313       4.28801199      19.23455026      -1.10397776      -0.91867678      -0.78332885
H        7.52274426       3.04941915      19.05230579       0.04616302       0.21426660       0.31648789
O        7.52851091       6.44629415      16.24604678      -0.91225960       0.24200771       0.30082166
H        8.31772179       6.09305552      16.70928452       0.54126062      -0.37039920      -0.07827234
H        6.78999683       6.23737386      16.87418956       0.32620669       0.27272576      -0.17203918
O        0.25063586       4.48039075      13.28625909       0.26243009      -0.15033162      -0.30078259
H        0.66781637       3.58321060      13.43535844      -0.01364916       0.01531040       0.34328223
H        7.74665777       4.42377620      13.58878261      -0.39044381       0.11005852       0.23412702
O        4.37635423       0.42982052      18.18917391      -0.32639387       0.19370989       0.66034257
H        3.92592355       0.84613887      18.97116088       0.04090881      -0.16403592      -1.04736216
H        3.73570880       0.32002620      17.42808407       0.03959251       0.21034540      -0.04802427
O        5.26654358       3.86930838      16.73781140       1.09587262      -0.19475985      -0.99856732
H        5.61572307       4.42379293      17.44382500      -0.01218660       0.61494305       0.73400896
H        4.42934768       3.52077927      17.04699854      -1.01188800      -0.36842613       0.01364036
O        6.59802104       8.94121175      18.81935463       0.02644489       0.15116307       0.23173936
H        6.22897492       8.03446639      18.76237318      -0.08011784       0.17666253      -0.22759385
H        5.86820920       9.55011817      18.49779323      -0.27363793      -0.50606007       0.26312240
O        1.44793295       2.06893722      14.14656536      -0.40012069      -0.53989806      -1.34285825
H        1.95088881       1.68369872      13.34047166      -0.55309784       0.64161853       1.19256875
H        0.64829445       1.46798339      14.18728829       0.84710780       0.45043209       0.20274946
O        0.90245573       9.13196544      14.13314852       0.49250785      -1.95644459       1.57659609
H        0.96922367       9.15224866      13.15921192       0.33948509      -0.26572938      -0.64245416
H        1.38088985       8.26054322      14.45186371      -0.84511518       1.65653577      -1.11834616
O        2.44788238       2.86202681      16.62836448      -0.73706031       0.25513198      -0.35904223
H        2.10364068       2.33768186      17.42065693       0.11842854       0.09176551      -1.43339154
H        1.96082909       2.68487199      15.73030817       0.83126480      -0.34200111       1.89780962
O        0.25755765       0.21251044      20.84040120       0.71568072      -0.44281391       2.08898948
H        7.74845331       0.34988434      20.96419888      -0.30709158      -0.01830366      -0.40044110
H        0.53829119       0.06247727      21.80571607      -0.23225112       0.31909491      -1.68633971
O        3.54606679       7.43664428      18.08282387      -3.03753867      -1.70668805       1.82588528
H        2.69789265       7.26088405      18.68181849       1.98560655       0.12411325      -1.65062962
H        3.65724022       8.35981828      18.27699797       0.65275669       1.74745255      -0.00159133
O        4.54330787       2.43620744      12.98005642       0.17948029      -0.35764343       0.41083326
H        4.93219898       1.62343149      13.45355704      -0.32434901      -0.21787411       0.22557197
H        5.26241543       3.13461694      13.07248614      -0.37316011       0.01180777       0.29132504
O        0.69276420       6.92139079      19.72307705      -0.65044596       1.13586997       0.33410586
H        8.31851287       7.41803261      19.43918073       0.72287017      -0.50459322      -0.11233953
H        0.94125250       7.52322432      20.47157262       0.12594847      -0.58444103      -0.38124508
O        4.49517763       6.83373523      13.20984384      -0.62960931      -0.90327801      -0.47658736
H        5.21626831       7.34147913      13.61266603       1.06835164       0.69153450       0.18181109
H        3.70837360       6.77765864      13.81626482      -0.45660299      -0.06361542       0.12842563
O        1.99417151       1.74840846      19.17933740       2.14352628       1.84083066      -1.78341144
H        1.56305998       1.10525986      19.68359016      -1.82506648      -2.13835648       1.66910041
H        1.43664358       2.53169413      19.21207297      -0.50930634       0.41630823       0.22374144
O        3.08699818       9.33980387      15.88408491       1.64650706      -0.53911036       1.18095350
H        2.23134429       9.58175737      15.57343051      -1.25977159       0.76337615      -0.73205339
H        3.79283914       9.65199012      15.25770695      -0.24738643       0.18037757       0.03693656
O        1.48065421       5.43346872      17.21177641       0.30910873      -0.33491973       1.62424622
H        1.46400858       5.60257716      18.22600537       0.15338859      -0.23977966      -2.20213227
H        1.86940461       4.49701087      17.06717920      -0.45506743       0.59514561       0.19133449
O        2.31470061       6.36678061      14.52017010      -0.28789749       0.46242453      -0.73578118
H        1.73296211       5.98078290      13.82771517      -0.04433561      -0.17211346       0.24567072
H        1.98013716       6.07417838      15.38312427       0.02534880      -0.17371359       0.68099247
O        6.68127197       7.92717872      14.04760844      -1.57311041      -0.91382147       2.81626110
H        7.04972408       7.69995580      14.97463177      -0.29435778      -0.14900402      -1.23301701
H        7.39988058       8.23962134      13.54097982       1.98628389       0.82199184      -1.28800998
O        5.58600600       6.04390476      18.50592470       0.53003298      -0.04252356      -1.70469099
H        4.74601233       6.58425291      18.47852794      -0.61133352       0.16782347      -0.26812501
H        5.83308593       5.98441300      19.40533605       0.58104411      -0.39264900       1.99429919
108
Lattice="8.443 0.0 0.0 0.0 9.749 0.0 0.0 0.0 34.36749462" Properties=species:S:1:pos:R:3:forces:R:3 bias_charge=0.85 work_function=5.397176720957304 energy=-584.7889097600548 pbc="T T F"
Pt       7.03577500       5.77911800       6.50000000      -0.17376771      -0.00048488       0.00068223
Pt       1.40711200       5.77911700       6.50000400       0.02285096      -0.04820262       0.25416193
Pt       7.03577500       0.90461600       6.50000500       0.01685005       0.02226846       0.21673092
Pt       4.22144400       5.77912000       6.50000600      -0.01131268      -0.06897000       0.16382905
Pt       5.62860700       8.21637200       6.50000900      -0.04161620      -0.11756057       0.11451570
Pt       1.40711200       0.90461500       6.50000900      -0.05763005      -0.01577443       0.10929556
Pt       8.44294300       8.21637100       6.50001100      -0.03068654       0.03202472       0.18070046
Pt       4.22144300       0.90461400       6.50001200      -0.14273331      -0.09230264       0.09197177
Pt       2.81428000       8.21637000       6.50001200      -0.02684767      -0.04426257       0.15220256
Pt       5.62860600       3.34186500       6.50001600       0.06294411       0.06370732      -0.04075367
Pt       8.44294300       3.34186800       6.50001800      -0.08949864      -0.06856687       0.14091041
Pt       2.81428000       3.34186700       6.50001900      -0.02560455       0.01336697       0.14608684
Pt       2.81428000       6.40710800       8.77208900      -0.07378438      -0.19638252       0.38557484
Pt       8.44294300       6.40710800       8.77208900       0.40647874      -0.01452074      -0.22473856
Pt       5.62860600       6.40711000       8.77209100       0.15047682       0.02246958       0.16207065
Pt       2.81428000       1.53260500       8.77209500       0.06191778       0.38178389      -0.90461324
Pt       8.44294300       1.53260400       8.77209600      -0.14941391       0.15121281      -0.58852426
Pt       4.22144300       8.84436100       8.77209600       0.29951142       0.07041386      -0.36872613
Pt       5.62860700       1.53260300       8.77209800       0.71067086       0.00154693      -0.98438366
Pt       1.40711200       8.84436000       8.77209800      -0.12629405      -0.28932822      -0.82689637
Pt       4.22144400       3.96985500       8.77210100      -0.69014334       0.65390629      -0.53292914
Pt       7.03577500       8.84436000       8.77210200       0.30642756      -0.00751874      -0.40230214
Pt       1.40711200       3.96985800       8.77210300       0.25106498       0.41212005       0.13607356
Pt       7.03577500       3.96985700       8.77210700       0.40483099       0.04873904       0.28928425
Pt       4.29543369       7.11615296      10.97401921       0.00308888      -0.14812322       0.91490881
Pt       5.57496775       4.50800305      10.98448185       0.94554471       0.77863801      -0.02963839
Pt       1.46487286       2.26584100      10.94885820      -0.13942210      -0.01198396       0.16802532
Pt       0.12483209       9.60382445      10.97262578      -0.83992788      -0.33923881       0.65731088
Pt       7.12502956       7.05687632      10.98030248      -0.17053927       0.17860428      -0.19314082
Pt       4.32329921       2.23985144      10.86858010      -0.81882917      -0.61431344       0.89765728
Pt       2.86374882       4.73335979      11.26296404       0.21587558      -0.30511262      -0.60454257
Pt       1.48508405       7.14078220      11.08621597      -0.23662830       0.03509140      -0.52467454
Pt       5.73360503       9.57598814      10.95949270      -0.17473214      -0.27479779       0.35083318
Pt       2.78978046       9.61836428      10.89603419       0.70728780      -0.48367976       0.78000660
Pt       7.11245024       2.20807986      11.05664776       0.01520695       0.06024493      -0.02391604
Pt       0.10787447       4.66245189      11.07910963      -0.40397374       0.14304549       0.66141134
O        1.92488434       4.95174140      20.39349462      -0.58064374      -0.19939913      -0.11559205
H        2.28926532       4.85148902      21.29052558      -0.10507601      -0.11737179      -0.07824297
H        1.67589453       4.03451534      19.99345984       0.22434159       0.89875226       0.24995853
O        6.72452715       6.26485626      14.16142667      -2.31642405      -1.52414413       0.17735091
H        7.16025548       6.96272259      14.64831598       0.96767657       1.20386118       1.05048178
H        6.38191891       5.60632749      14.85027786      -0.29015107       0.48700114      -0.30191464
O        1.46385068       3.01440584      18.82836064       0.68702597      -0.55361965      -0.40080270
H        2.31564050       2.50751412      19.10272762      -1.11619800      -0.07626710      -0.15490687
H        1.65831194       3.43230696      17.95210354       0.12794410       0.14151020       0.03190549
O        3.51117635       8.72029275      18.74770791      -0.56414562      -0.56312162      -0.54175700
H        2.55314004       8.45292422      18.77558159       0.24951260      -0.02411363      -0.39918816
H        3.43349912       9.57713941      19.19690601       0.29971282       0.74447587       0.63105854
O        7.88472417       1.18209711      18.44547406       0.84142969      -0.29237108      -0.72559681
H        7.58441467       1.13045795      19.35557889      -0.52444726       0.39938025       0.71702965
H        0.14658753       1.88511470      18.41813197       0.23413069      -0.25211981       0.66101087
O        4.90847235       2.06109812      13.92298172       0.21709272       1.34581729      -0.04717216
H        4.33228814       1.29378331      13.90654070      -0.68818333      -1.25221776      -0.10791552
H        5.37596282       2.00241360      13.05355296       0.05240093       0.08029905       0.00407576
O        6.60094404       1.74605477      16.34381548      -1.04085935       1.90447583      -0.05886516
H        6.21105599       2.67739835      16.47357285       0.54150091      -1.26123704      -0.65306069
H        7.16029017       1.61823101      17.16218420      -0.40351760      -0.42174120       0.09036112
O        5.88925824       2.29686883      20.19301023      -0.45814281      -1.09793367      -1.83071408
H        5.96207211       3.11055190      19.66293949       0.20749594       0.61908655      -1.28551281
H        5.86906782       2.71856309      21.01666877      -0.00289246       0.68318412       3.05393650
O        3.55020147       0.75206972      16.49164182       0.46673389      -1.49938734       0.58976191
H        3.67126616       9.70993757      17.14266334      -0.48112334       0.92710617      -0.29620355
H        4.48372565       0.99511216      16.31509613       0.32244572       0.37506981       0.12906636
O        6.03191731       4.64581675      18.65464076      -0.47998145      -0.07087279       0.22336003
H        5.18089108       5.10313920      18.87765232      -0.58343225      -0.54218569      -0.56626489
H        6.60471361       5.22501580      19.19686806       1.26461114       0.17101951      -0.08639323
O        3.34025749       9.43325486      14.17082937      -0.62502910      -0.07772780       0.80195359
H        2.37505778       9.47863235      13.96647649       0.45754643       0.32340163      -0.18890056
H        3.35310036       0.02723831      15.20295365       0.18023006      -0.35460474      -0.99572995
O        7.86164363       6.29997936      19.87404041       0.54900207      -0.86724902       1.41855758
H        7.32575773       6.56055805      20.67557613       0.81784837      -0.18455469      -0.73240783
H        0.18160353       5.69690343      20.23313054      -0.99765810       1.01776445      -0.38850142
O        2.47996070       4.30759255      16.49845720      -0.45842315      -0.16965357      -1.21020215
H        3.06717754       4.87152928      17.01977015       0.20503571       0.63695500       0.52153421
H        2.25804723       4.87140288      15.69204530       0.04063123      -0.33379397       0.79422449
O        3.65280482       5.85718575      18.53257059       0.55857727      -0.07052110      -0.51078382
H        2.96792167       5.56997379      19.15860604      -0.79485685      -0.55261741       0.83263276
H        4.03465147       6.60077203      19.01769669       0.08653346       0.98051331      -0.21933186
O        3.20821192       1.42203908      19.98969889       2.29856783       1.48583958      -1.24579569
H        4.12624187       1.93488587      19.99889341      -0.91918868      -1.18633863      -0.28627311
H        3.07137540       1.41426255      20.92657926      -0.74919234      -0.26134332       1.51615332
O        8.34158327       7.93470621      15.50973299       0.64894725       0.20527092       1.10825032
H        0.09947828       8.10130285      16.48385913      -0.16114517      -0.37336069      -0.48256951
H        8.15192506       8.82936877      15.13823801      -0.38057550       0.22030761      -0.31622737
O        2.84439433       3.89080086      13.44937741       0.84325855      -0.38267570       0.09154830
H        2.07285874       3.29061713      13.41364253      -0.47332656      -0.14468974       0.03879908
H        3.61712822       3.22941779      13.56529598      -0.24367748       0.53162902      -0.15098151
O        1.13407391       1.66523284      14.36374320       1.88680618       1.09845509       0.65147428
H        1.54292684       2.11805010      15.15852905      -0.60562447      -0.67892191      -0.79102543
H        0.29984823       1.28676529      14.65381729      -0.91691434      -0.30155148       0.19460123
O        0.05534511       4.87502333      13.27112597       1.14790680      -0.20290219       0.16639493
H        7.63941208       5.31751390      13.60550073       0.49621347       0.14042428      -0.61325359
H        0.80358012       5.45411581      13.76052141      -0.64698570      -0.66075902      -1.19289559
O        1.79792121       6.29273480      14.55339264      -2.79085347      -0.30803523       2.10257491
H        2.49939902       6.78670649      14.20750713       2.72153912       0.95632932      -1.60828931
H        1.23344749       7.02471583      14.99315857      -0.03603865      -0.76559100      -0.29766408
O        0.66128754       8.29813195      18.39503077      -1.04457226       1.10764454      -0.33797429
H        8.38832169       9.03562432      18.48401354       1.56952992      -1.16242836       0.06831010
H        0.40238321       7.56027863      19.00166123      -0.54388666       0.19713379      -0.09677233
O        7.17796514       0.31877132      14.26803661      -0.66203029       0.67475634       3.89038728
H        6.85928650       1.20113144      14.74326813       0.30437056      -1.77135165      -0.50354696
H        7.35054578       0.47419237      13.37574435       0.42147262       0.63540535      -3.21505501
O        4.20599979       7.11037748      13.21134983       0.30217458       1.74827377       0.84302826
H        5.11594413       6.84575951      13.63361394      -1.09046775       0.61058751      -0.73887070
H        3.89509594       8.14933386      13.53130174       0.93002882      -1.73361368      -0.12622153
O        5.35352444       4.42727913      15.85094817       1.64173507       0.35802836      -0.24880926
H        4.44180638       4.15989998      15.68591827      -0.64266002       0.03749833       0.35853644
H        5.50617828       4.77067769      16.76113299      -0.45801107      -0.25654655       0.13511448
108
Lattice="8.443 0.0 0.0 0.0 9.749 0.0 0.0 0.0 34.595985639999995" Properties=species:S:1:pos:R:3:forces:R:3 bias_charge=1.0 work_function=6.546550353723845 energy=-583.357910392097 pbc="T T F"
Pt       7.03577500       5.77911800       6.50000000      -0.04317049      -0.08131618       0.16954840
Pt       1.40711200       5.77911700       6.50000400       0.08318946      -0.01631503       0.18629629
Pt       7.03577500       0.90461600       6.50000500      -0.01823406       0.01550359       0.12253638
Pt       4.22144400       5.77912000       6.50000600      -0.02359877       0.01733009       0.19617914
Pt       5.62860700       8.21637200       6.50000900      -0.09485045       0.02712185       0.08298827
Pt       1.40711200       0.90461500       6.50000900      -0.04161785       0.02377603       0.24532939
Pt       8.44294300       8.21637100       6.50001100       0.11270100       0.07006304      -0.03832031
Pt       4.22144300       0.90461400       6.50001200       0.09835144      -0.06661045       0.17553905
Pt       2.81428000       8.21637000       6.50001200       0.14091483       0.01606600       0.01559454
Pt       5.62860600       3.34186500       6.50001600       0.12114922       0.03994558       0.01749081
Pt       8.44294300       3.34186800       6.50001800      -0.00703079       0.00854703       0.11145178
Pt       2.81428000       3.34186700       6.50001900       0.00707948       0.16570372      -0.06106119
Pt       2.81428000       6.40710800       8.77208900      -0.10284041      -0.37976141      -0.22446604
Pt       8.44294300       6.40710800       8.77208900      -0.14629957       0.04313588       0.09237605
Pt       5.62860600       6.40711000       8.77209100      -0.10612839       0.04997603      -0.17956446
Pt       2.81428000       1.53260500       8.77209500      -0.56594066      -0.17064683      -0.32892004
Pt       8.44294300       1.53260400       8.77209600       0.19335078       0.28707325      -0.05444572
Pt       4.22144300       8.84436100       8.77209600       0.12566125       0.02174312       0.14051300
Pt       5.62860700       1.53260300       8.77209800       0.06220686      -0.15871975      -0.16473480
Pt       1.40711200       8.84436000       8.77209800       0.00460262      -0.06682415      -0.12544695
Pt       4.22144400       3.96985500       8.77210100       0.15527588       0.31603469      -0.05490264
Pt       7.03577500       8.84436000       8.77210200      -0.31615035       0.11275431      -0.07925190
Pt       1.40711200       3.96985800       8.77210300      -0.24715394      -0.24162931      -0.04755333
Pt       7.03577500       3.96985700       8.77210700       0.14409587       0.05724832       0.52653634
Pt       4.09985934       7.02551761      11.02454667       0.87217965      -0.06047086      -0.05469966
Pt       5.50836904       4.62696986      11.03662206       0.40847646      -0.25030517       0.01761487
Pt       1.39620922       2.07377153      11.20454634      -0.41980934       0.08338952      -0.65163343
Pt       8.44041820       9.52454210      10.96640036      -0.37970245      -0.34504781       0.42168347
Pt       6.97474589       7.06275545      11.02321169       0.60760288      -0.32759669      -0.49238028
Pt       4.16884580       2.07097072      10.95259793       0.32970236       0.05624517       0.28577371
Pt       2.79016976       4.31898429      11.04683446       0.07054612       0.78990514       0.02405403
Pt       1.47211492       6.98366633      11.04919544      -1.07959299      -0.17242291      -0.36590163
Pt       5.58747500       9.38539841      11.08966073      -0.01536673       0.31765895       0.04556519
Pt       2.69797489       9.37500732      11.05245511       0.45149898       0.14579277       0.27376862
Pt       6.97042536       2.05397974      11.04418434       0.41726439       0.20941991      -0.35594304
Pt       0.07950637       4.57751924      11.06382076      -0.21354073       0.01963374       0.04353369
O        5.93989292       4.70035211      13.17010467      -0.52681125      -1.59940027       1.43579064
H        5.17210293       5.08322782      13.69736729      -0.33818464       0.71492905      -0.20658566
H        5.84564706       3.73479357      13.64392558       0.61193940       0.65988460      -0.52077063
O        3.87058420       5.40486034      14.77531792      -1.75073494       1.33680873      -1.37406591
H        3.15364809       6.17589853      14.81161495       1.41400179      -1.33265880      -0.12340338
H        4.25507351       5.17087663      15.62384166       0.22104574      -0.19628079       1.37754623
O        7.00061612       3.07365347      20.62198564      -0.23485628       0.17643444       2.92048763
H        6.95292734       2.84751859      21.63733609      -0.12846956       0.02190742      -2.43721985
H        7.36217143       3.97620060      20.75604297       0.04528845       0.08406907      -0.59079399
O        0.21114493       5.11570585      13.25860357      -2.32925529       0.96080779      -1.44688898
H        0.66052077       4.60195469      13.96039327       0.76185863      -1.06984484       1.15540589
H        7.65242325       5.04199122      13.42484740       0.81795774      -0.00100521      -0.06035320
O        5.70919469       9.52386695      17.24952393      -1.41377633       2.07478146      -1.67176670
H        5.51486096       9.31902993      18.17590723       0.09042091      -0.44085823       1.86724633
H        5.00863844       0.51109497      17.12091446       1.36987658      -1.55440688      -0.09193400
O        0.79430889       4.72433668      17.66035495      -0.54688183       0.78152499      -0.73659196
H        0.14985868       5.38850931      18.00417811      -0.06328731       0.22144615       0.11018395
H        0.94909893       4.20813871      18.44421436       0.31783579      -0.84280820       0.75119234
O        0.94981135       8.35183308      16.77126080       1.13096321       0.91144497       0.97025870
H        1.59875593       8.28093946      17.59256829      -1.17080016      -0.18112924      -1.06309184
H        0.81916634       9.33336683      16.66148151       0.04851550      -0.98594977      -0.06739050
O        5.35067940       9.24119490      19.92053505       0.32414734      -1.32736379      -0.10957772
H        4.73300732       0.21951344      20.11878058      -0.58221952      -0.43537849       0.41142549
H        5.02414042       8.30352379      20.22950016       0.08801813       2.03559477      -0.71543986
O        7.87520647       1.91695955      17.81354151       0.12452763       0.87047731      -0.26540538
H        7.51352247       2.81335031      17.64568382       0.45364640      -0.12080699       0.39371964
H        7.25455568       1.38898044      17.31351353      -0.75046304      -1.02717833      -0.55171579
O        6.84636688       6.94676059      16.82726116       0.16698457       0.96918136      -0.15572550
H        6.20528193       7.71040101      16.77109272       0.47742120      -0.45055198       0.20159353
H        7.69408693       7.41982462      17.11896493      -0.89267813      -0.56278577      -0.47476248
O        0.18340856       0.14817228      19.67281522       0.92739386      -1.27986298       1.66196845
H        8.07929793       0.22728872      20.47927445      -0.15195625       0.12185867      -0.50535998
H        8.24731703       0.67841499      18.97445515      -0.65821266       1.15475841      -0.53032714
O        5.90246962       2.45275594      14.65535773      -0.36660441      -0.27255883      -0.88329348
H        5.41527076       2.58065671      15.49803844       0.08424415       0.35598204      -0.15821726
H        5.52999501       1.65778189      14.17489865       0.42376063       0.28548098       0.43701027
O        4.76021143       6.71040911      20.41862395      -0.36040413      -0.48020796       2.14502136
H        4.69168800       6.70814918      21.44680880       0.12091410      -0.29117058      -2.20574987
H        4.30493142       5.88345682      20.11474676       0.29007042       0.40181947       0.14879606
O        5.50871440       9.70272315      13.35531206       1.87466624      -0.58938362      -0.49154510
H        6.25917507       8.99533352      13.66124650      -1.36797694       0.61067354       0.09946291
H        4.57471861       9.38342054      13.43531404      -0.18064530       0.00834622       0.42609595
O        3.00565656       9.51222424      13.35626704      -0.62494251      -1.78797776      -0.26383410
H        2.28387214       0.34833797      13.70780648      -0.51888304       0.68334227       0.29716520
H        2.63169820       8.57256432      13.58917813       0.18232541       0.73708770       0.22582974
O        0.86442567       1.22232310      14.24836578       0.01190466      -1.80023668      -0.62940044
H        1.18939576       2.10085217      14.52290446      -0.64525719       0.70080714      -0.52829179
H        0.34976030       1.11151565      13.37391570       0.80740099       1.12902083       1.27104605
O        7.75636728       6.19605917      19.40260141       0.86563197      -0.80666777      -0.17734956
H        0.06249344       6.56030470      19.91602325      -0.45871639       0.16185088      -0.02284736
H        6.93252918       6.64402681      19.61429886      -0.38925157       0.43226728       0.38734310
O        2.85841370       1.12154437      20.41044030      -1.38423968       0.39792672       1.62369927
H        2.63339700       1.51537946      21.31362753       0.87852358      -0.35109815      -1.20135031
H        1.96636340       0.68275195      20.28013180       0.61239656       0.23490393      -0.59537912
O        1.86364893       7.27479290      14.36946861      -1.55609810      -0.37668736      -0.99804635
H        1.08767657       7.01623221      13.71457200       1.78899069       0.24797786       1.54905610
H        1.40838721       7.54319374      15.23035018       0.17947834       0.32570767      -0.22222735
O        1.85007533       7.82134334      19.17825088       0.44092933      -0.12489485       1.44571307
H        2.47595729       7.73154651      19.94692314      -0.03278938      -0.10786069      -1.00878607
H        1.17211021       8.41357437      19.59254383      -0.24372501       0.32224428      -0.53560295
O        5.12927395       4.04498668      16.80956958       0.42132298       0.10660107       1.08595891
H        5.74371769       4.74551283      17.13847178      -0.00673026      -0.10449349      -0.55373302
H        4.80154355       3.73011496      17.72833655      -0.28664521       0.31465863      -0.55396489
O        4.31057432       3.83117575      19.26651155      -0.54983198       0.12955214       0.76391485
H        5.04009247       3.67660213      19.95428094      -1.20630034      -0.35887159      -0.46232933
H        3.36409777       3.62243123      19.57129504       2.10867849      -0.07215921       0.05811835
O        7.22599819       7.86135349      14.09793252       0.27553980       1.65791788       0.30127688
H        6.86743705       7.16400656      14.64894513      -0.30634803      -0.72946112       0.87150601
H        7.39185706       7.52920343      13.20748195       0.13713707      -0.68175207      -1.11860135
O        1.29665910       3.94708162      15.23470832       1.62726315      -0.01549133      -1.14984643
H        2.23536940       4.33432712      15.20961199      -1.07405990      -0.45925394       0.02853242
H        0.88233714       4.30998378      16.04683864       0.06218412      -0.03422990       0.94868839
108
Lattice="8.443 0.0 0.0 0.0 9.749 0.0 0.0 0.0 35.257581619999996" Properties=species:S:1:pos:R:3:forces:R:3 bias_charge=1.0 work_function=5.821316397248653 energy=-582.0719822830426 pbc="T T F"
Pt       7.03577500       5.77911800       6.50000000      -0.06817812       0.05275942       0.26210868
Pt       1.40711200       5.77911700       6.50000400      -0.09374264      -0.00238752       0.16091695
Pt       7.03577500       0.90461600       6.50000500      -0.11656023      -0.17794030       0.13847383
Pt       4.22144400       5.77912000       6.50000600      -0.04173148       0.01278514       0.16805062
Pt       5.62860700       8.21637200       6.50000900       0.11553654       0.11494853      -0.03248375
Pt       1.40711200       0.90461500       6.50000900       0.02492909      -0.01475809       0.28335954
Pt       8.44294300       8.21637100       6.50001100       0.00360861       0.09460792       0.04429472
Pt       4.22144300       0.90461400       6.50001200       0.04037787      -0.09426754       0.04456593
Pt       2.81428000       8.21637000       6.50001200       0.05245594       0.19005925      -0.08201787
Pt       5.62860600       3.34186500       6.50001600      -0.04601035      -0.01844408       0.05974763
Pt       8.44294300       3.34186800       6.50001800       0.09379707      -0.00893239       0.11036372
Pt       2.81428000       3.34186700       6.50001900      -0.06205838      -0.02063312       0.13266453
Pt       2.81428000       6.40710800       8.77208900      -0.39957238      -0.02483531      -0.23617895
Pt       8.44294300       6.40710800       8.77208900       0.56493852      -0.44107941      -0.62193905
Pt       5.62860600       6.40711000       8.77209100       0.54258699      -0.41154990      -0.87947659
Pt       2.81428000       1.53260500       8.77209500      -0.58932832       0.18857201      -0.23503755
Pt       8.44294300       1.53260400       8.77209600       0.67390995      -0.01724427      -0.24553406
Pt       4.22144300       8.84436100       8.77209600      -0.28175285      -0.20328573      -0.01739157
Pt       5.62860700       1.53260300       8.77209800       0.29183838      -0.14174090      -0.12515976
Pt       1.40711200       8.84436000       8.77209800      -0.45469708      -0.01412844       0.08298887
Pt       4.22144400       3.96985500       8.77210100       0.37204782      -0.07341050      -0.02980595
Pt       7.03577500       8.84436000       8.77210200       0.07443619       0.19508477       0.49030708
Pt       1.40711200       3.96985800       8.77210300      -0.27412640      -0.29143058       0.04031979
Pt       7.03577500       3.96985700       8.77210700      -0.18374157       0.30159305      -0.23936557
Pt       4.31148627       6.70118438      10.92438402      -1.30452587       1.06088858       1.01722130
Pt       5.62192867       4.54247768      11.19372410       0.75674274      -0.81611472      -0.53600253
Pt       1.46155916       2.16101571      11.26531644      -0.05546733      -0.23942673      -0.89495713
Pt       8.38456285       9.50440612      11.10868781       0.18778352      -0.22267068       0.02812507
Pt       7.12654489       6.94458534      10.92796179      -0.56403851       0.11877859       0.56722505
Pt       4.24013997       1.99733277      10.96592713       0.00540284       0.39810123       0.32339852
Pt       2.81420449       4.46714204      11.00395957      -0.03396545       0.28596956       0.32324419
Pt       1.39583319       6.96548684      11.04168022       0.51859777       0.05170401      -0.25130228
Pt       5.51679992       9.22449374      11.01573435       0.38901086       0.29347116      -0.26940857
Pt       2.72015051       9.51647876      10.99312676       0.16154657      -0.13216266      -0.04970269
Pt       7.08689717       2.21654572      10.94409464      -0.77576974      -0.39658741       0.24692245
Pt       8.42830568       4.37910566      11.12253327       0.42395396       0.85818937      -0.18061490
O        5.35061827       9.39297924      13.02717113      -0.11122891      -0.34928974      -1.22083737
H        5.43263915       0.53778800      13.57552833       0.01303081       0.20494334       1.02009172
H        5.21460045       8.50867568      13.39521597       0.06911206      -0.46889864       1.00701751
O        1.97511968       6.94687027      19.78236342      -0.77999638       0.34357891      -2.15193420
H        1.62268772       6.46450807      20.51209164      -0.91790905      -1.35463627       1.34229905
H        2.62866589       7.47634421      20.19179794       1.90965240       1.08935370       0.82385048
O        4.53525084       8.47547133      21.22628617       0.19268054      -0.08659496      -2.65154688
H        4.00796774       9.23996447      20.91552807       0.12578228       0.06131728       0.72351178
H        4.50360011       8.35870183      22.15355378      -0.70800714       0.11846103       2.05785037
O        4.85237696       4.71934747      15.33878489      -0.09865258       0.52541015      -2.56160729
H        4.85866300       5.15882982      16.17326316      -0.04679677       0.37915222       2.46389643
H        4.76858409       3.78220464      15.45038859       0.29709095      -1.34867744       0.35257418
O        8.32187751       9.69685327      13.18650579      -0.43748883      -0.00888528      -0.78405372
H        8.40154652       8.77971552      13.68311899       0.51279353       0.01395316       0.09546875
H        0.05091462       0.78868267      13.65892473       0.05334553       0.56139068       0.18517705
O        7.06245898       9.29222766      21.16563493       2.26603729       0.50536229      -0.58686242
H        6.16308597       9.01856936      21.28523639      -2.16314611      -0.33851970      -0.09829826
H        7.37571843       9.52091204      22.04858326       0.25152585       0.05967963       0.37509541
O        5.57195852       0.50119759      16.75657485      -1.75330305       0.80564705       0.88426164
H        6.49339601       0.28974734      16.93013386       0.96545827       0.17700940       0.44628529
H        5.23070123       1.13135331      17.52272598       0.71383199      -0.84674322      -0.75086608
O        0.75174944       7.27832784      16.56657108       0.25487321      -1.20686587       0.88546148
H        0.62162039       6.45406950      17.17198649       0.87682235       2.04318615      -1.25800289
H        1.70093882       7.63018548      16.58711428      -1.02422723      -0.64123951       0.43021943
O        3.56022223       8.26664521      16.27718897      -0.49544295      -0.32126191      -0.23749407
H        4.35148215       8.68555479      16.64291152       0.40432420       1.07563825       0.13477811
H        3.76462587       7.35269961      16.49687188      -0.01870984      -0.88060435       0.15131965
O        4.49222917       5.53937971      17.87497625      -0.69876885      -0.09021659      -1.23537828
H        3.76732356       4.91488619      18.08407512      -0.14120248       0.00675179       0.40239535
H        4.95230767       5.65326484      18.69953760       0.65631817       0.19011860       0.93103243
O        5.00067162       3.83397592      21.28358162      -0.97931235       1.30015623      -1.49214049
H        5.44222634       3.44343491      22.01109907       0.82458156      -0.77243062       1.65959543
H        4.15200691       4.18935256      21.62366725       0.29068126      -0.23806630      -0.19337126
O        8.23571931       1.12825088      16.89988042      -0.36564569       1.95123763       0.16158095
H        0.26271139       0.59887423      17.56403351       0.53218555      -0.33512793       0.67027514
H        8.13046452       2.05126134      17.31335707       0.17206074      -1.73748458      -0.26693294
O        2.06298562       4.50200335      14.64219641      -0.23711815       0.30292101      -0.13018331
H        1.92931379       5.43290635      14.38371651      -0.37470990      -0.06186995      -0.16959710
H        3.01102804       4.53805105      14.87651180       0.35582670      -0.19178606       0.03605376
O        0.81728916       9.44553516      19.28310830       0.00539916       0.24432523       0.05264845
H        1.12286651       8.51090642      19.41110695       0.07603560      -0.18263360      -0.19502359
H        8.43185013       9.45853677      19.80783086      -0.14345687      -0.06589939       0.15541209
O        4.93660308       2.16124103      18.87513258       3.16756038       0.79251848       0.84273233
H        5.80883701       2.54036011      19.40413672      -2.25377221      -1.07890385      -1.57829246
H        4.22052574       2.46035887      19.44614438      -0.51826720       0.08832270       0.32764559
O        7.61931511       2.63003014      19.88562691      -0.16277190      -0.31106009       0.13282512
H        7.59591910       1.73066991      20.26388279      -0.09332014      -0.09806580      -0.01979242
H        7.93357765       3.16732455      20.64456648       0.05937576       0.40480176      -0.22144166
O        2.43831206       3.94900528      19.60670433       0.48960674      -2.72110899      -0.82854687
H        2.23204007       2.91812524      19.74642436       0.92163733       2.17024625      -0.04643226
H        1.61390663       4.27242180      19.95677724      -1.03947587       1.04233215       0.57518891
O        5.84774619       6.78133439      13.92353817       0.84922363      -0.41147484      -1.40341277
H        6.02148861       6.27307696      13.05457511      -0.39560956       0.76712817       0.71342674
H        5.73297945       6.01211804      14.51680876      -0.44930954      -0.31877114       0.38022984
O        0.47351804       4.96376891      21.24757932      -0.32596799       0.29587127      -1.03339803
H        0.72104361       4.81951539      22.16633690      -0.32747042       0.46250827       0.47246264
H        8.19684658       5.67638806      21.02819000       0.46459133      -1.09250873       0.65092216
O        6.89553211       6.27699816      20.29806044      -0.47190207       0.04066107       0.72495274
H        6.88526499       7.14022089      20.78089616      -0.17829281      -0.22187547      -0.33674978
H        6.23907597       5.69843180      20.77936140       0.34459837       0.34380115      -0.29315196
O        8.30559112       2.34546477      14.50610150      -1.40162016      -0.76525528      -0.94443395
H        0.49461201       2.95829804      14.16031486       1.25563498       1.21715883      -0.41903607
H        0.17185469       2.03118620      15.35559304       0.46964210      -0.48490994       1.16748510
O        5.57743739       1.58516483      14.45592436       0.09409285       0.14500698       0.77188492
H        5.71434732       1.21321712      15.44355621      -0.70031487       0.03438250      -0.89613252
H        6.44555899       1.97791188      14.24603109       0.35393538       0.29170949      -0.09598838
O        2.48970538       1.59537079      20.68312199       0.18809766      -0.19939313       1.71749461
H        2.42358456       1.77291628      21.70039542      -0.24347343      -0.88051424      -2.55997740
H        1.95820424       0.82353831      20.33832422      -0.17827180       0.27705526       0.68911322
O        0.25775548       7.47805386      13.98467336      -1.03632934      -1.54327158       0.75537256
H        0.30754175       7.26798621      14.97849825       0.64615692       0.48658015       0.02905099
H        7.83381113       7.00945468      13.80702848       0.31877204       0.39673552      -0.25148505
108
Lattice="8.443 0.0 0.0 0.0 9.749 0.0 0.0 0.0 34.9518267" Properties=species:S:1:pos:R:3:forces:R:3 bias_charge=1.0 work_function=5.761247384348824 energy=-584.2338577222238 pbc="T T F"
Pt       7.03577500       5.77911800       6.50000000       0.07391084      -0.05937459       0.17841715
Pt       1.40711200       5.77911700       6.50000400      -0.01201337       0.05614776      -0.01858305
Pt       7.03577500       0.90461600       6.50000500       0.05963510       0.07781789       0.06959672
Pt       4.22144400       5.77912000       6.50000600      -0.01483123      -0.04382772      -0.00315555
Pt       5.62860700       8.21637200       6.50000900      -0.00252598      -0.03535003       0.18604127
Pt       1.40711200       0.90461500       6.50000900      -0.00620414      -0.00571428       0.18065723
Pt       8.44294300       8.21637100       6.50001100       0.08819616      -0.05570303       0.17183205
Pt       4.22144300       0.90461400       6.50001200       0.03234665       0.02693673       0.02676712
Pt       2.81428000       8.21637000       6.50001200      -0.04472509       0.05643199       0.13900625
Pt       5.62860600       3.34186500       6.50001600       0.10776526       0.01652585       0.10384836
Pt       8.44294300       3.34186800       6.50001800      -0.07542594       0.04543652       0.14238111
Pt       2.81428000       3.34186700       6.50001900       0.11199537       0.04722455       0.10906504
Pt       2.81428000       6.40710800       8.77208900       0.05917884       0.06261703       0.19505508
Pt       8.44294300       6.40710800       8.77208900      -0.35095815       0.18135743       0.24415432
Pt       5.62860600       6.40711000       8.77209100       0.43597864       0.29705937       0.42412337
Pt       2.81428000       1.53260500       8.77209500      -0.61178667      -0.11602091      -0.22138722
Pt       8.44294300       1.53260400       8.77209600       0.25762575       0.15533999       0.05906734
Pt       4.22144300       8.84436100       8.77209600      -0.04373461      -0.10667676      -0.53991232
Pt       5.62860700       1.53260300       8.77209800       0.24073543      -0.05048372       0.06861109
Pt       1.40711200       8.84436000       8.77209800      -0.02694952      -0.46896938      -0.31888662
Pt       4.22144400       3.96985500       8.77210100      -0.29127093       0.02666700      -0.48419291
Pt       7.03577500       8.84436000       8.77210200      -0.15380230      -0.24854178       0.08563457
Pt       1.40711200       3.96985800       8.77210300       0.02816867      -0.35873453      -0.21102777
Pt       7.03577500       3.96985700       8.77210700      -0.23230412      -0.14468880      -0.26007627
Pt       4.24125524       7.03321332      11.06113996      -0.62972636       0.00164956      -0.22780597
Pt       5.54948928       4.54673243      10.94686007       0.34584747      -0.47112852       0.91432502
Pt       1.35605334       1.95551659      11.19453205       0.47036291       0.27258239      -0.15721520
Pt       0.03321654       9.40093839      10.97528861      -0.25813271      -0.36544855       0.11426715
Pt       7.00530659       6.99318128      11.25953645       0.21156822       0.04519133      -0.91748103
Pt       4.16385225       2.08323811      10.94168667       0.10725984       0.28747293       0.36485884
Pt       2.77808783       4.50096354      11.01847928      -0.05973542      -0.08820253      -0.01271864
Pt       1.37358882       6.78347081      11.10745677       0.12306580       0.42830056      -0.44423069
Pt       5.51848953       9.39361411      11.03683785       0.65135606      -0.00122593      -0.01756125
Pt       2.79189304       9.33189806      10.99776634      -0.07557673      -0.08603546       0.30128150
Pt       7.08237184       1.96045018      11.05951286      -0.48923839       0.11039698       0.06220413
Pt       8.39421485       4.47310089      10.96067613       0.29314492       0.14351673       0.25429954
O        0.88057968       9.11558646      14.50187591      -1.40939518      -0.44072231       1.68778438
H        0.50389847       9.13044324      15.44185443       1.06770757       0.30606963      -0.99805816
H        0.21756800       8.47838265      14.12722916       0.28742475       0.21639535      -0.70528675
O        6.52674017       8.19475438      20.97782670       0.56408512      -0.77178469      -0.84730270
H        7.44955433       8.08667353      20.59362950      -0.91564045       0.45510672       0.69635242
H        6.57798518       8.88457639      21.65241155       0.21525184       0.15270156       0.26366064
O        2.13901462       5.47329396      18.80587284       0.64453483      -0.00662901       0.41020425
H        1.28484742       5.79150164      18.50157300      -1.59736571      -0.15194547      -0.37183213
H        2.62125356       6.28951198      18.99329759       0.47584864       0.13349341       0.40699143
O        5.62783632       4.15664737      13.21821658      -0.39852610      -0.13457326       0.09841738
H        4.69429522       4.24548649      13.60256592      -0.11822064       0.82067736       0.16043414
H        5.70761319       3.17826849      13.28948083       0.91401626      -0.20521328      -0.15302511
O        3.38464403       4.62176447      14.39760572      -0.30988262      -1.74923807       0.36981809
H        3.25759767       5.55328124      14.51043576      -0.23994498       2.05992367      -0.29636502
H        3.21808267       4.32023763      15.32998656       0.46554858      -0.25114333       0.02170504
O        7.00024790       8.32049024      17.05270143      -0.63003118      -0.20293815       0.11949061
H        7.83612496       8.49359623      17.49295203       0.91468490       0.72357356       0.25684535
H        6.29480071       8.48723999      17.72812141      -0.37322762       0.20943791       0.41343445
O        5.94421985       8.89107019      14.78394076      -1.22738578       0.35437266       1.28466405
H        6.24454146       8.92742227      15.76976637       0.42373571      -0.27920882      -1.45709916
H        4.97634763       8.68956924      14.92741780       0.47608031       0.04474186      -0.72282789
O        3.52864550       4.06311976      17.13836597      -0.46739290      -0.87210872      -1.10128743
H        4.45272774       3.98185183      17.45065529       0.15261646       0.44753120       0.61209995
H        2.97566293       4.55669029      17.79676630       0.27074144       0.21110877       0.18291202
O        0.12564685       1.93210783      20.45776901       0.03017793       1.05986629       1.02575970
H        8.16125254       2.34219217      21.25442212      -0.91689618      -0.72457927      -0.29077549
H        0.98648577       2.43296492      20.63354717       0.77340882      -0.25279764      -1.00036219
O        7.85041894       5.78947585      17.68692170      -0.50894415      -1.03120555       0.69366377
H        7.59108949       6.72294080      17.66653340      -0.38238601       0.15142246      -0.20180384
H        6.98604322       5.28031368      18.09805964       1.33951694       0.45536175      -0.54457995
O        6.71015858       1.87355346      18.36261099       0.15775473      -0.56849798       1.63800698
H        7.50976905       1.76433436      18.94842559      -0.66164224       0.20404156       0.27460682
H        7.15113347       2.08529359      17.54668175       0.53552705       0.38991002      -1.90870652
O        1.56575687       8.94579036      17.52319725      -0.05392290      -0.41970503      -0.98705663
H        2.06278184       8.11088158      17.54747872       0.25990726       0.14322907      -0.36493194
H        1.33779092       9.07203903      18.47218954      -0.35530933       0.31928009       1.09359461
O        2.29496010       1.69756090      16.63667370      -0.43924299      -0.23202255      -0.27853522
H        2.80835861       2.45901653      17.04009749      -0.14592415      -0.45561118       0.09432985
H        2.21005193       0.85508458      17.16544400       0.44269916       0.63930973      -0.15215139
O        3.10056809       7.59323157      14.45722859       1.42292585      -0.89478236       0.55114488
H        2.27013440       8.07067766      14.44680852      -1.35114070       0.92004657       0.34684959
H        3.33022199       7.61169104      13.51984141       0.39155326      -0.10949614      -0.89119324
O        8.22846355       2.46268687      15.94352708       1.15444978       0.26954458       0.19217283
H        0.73878589       2.12377384      16.20108285      -0.82072828       0.41683565      -0.18903384
H        8.39933539       3.42229685      15.72204823      -0.20392085      -0.66800695       0.07931995
O        4.86248384       8.97819433      18.88114893       0.36531636       2.30927841      -0.90970978
H        5.06805229       0.24207169      18.85927723      -0.42248736      -2.08440018      -0.04184409
H        5.26367182       8.71692935      19.72796473       0.42552848      -0.25253600       0.63576370
O        1.58130918       2.02223600      13.52808199      -0.27711292      -0.01681101      -0.11076910
H        1.56876131       1.22597010      14.09911217      -0.40755294      -0.54073192      -0.31585957
H        2.46812223       2.35824892      13.67556273       0.71222522       0.65040065      -0.01624540
O        5.83762971       4.38602413      18.59736544      -0.27013634      -0.01083772       2.13815064
H        5.50228693       4.73286578      19.55905050       0.54711792      -0.19231345      -1.80185904
H        6.21904584       3.46281408      18.79017156      -0.26866212       0.51659772      -0.47771073
O        7.91307575       5.20748245      14.98908005      -0.60293705      -0.95959584      -1.79927571
H        8.15481345       5.60799858      15.83222637      -0.54400884       0.18607246       1.41127089
H        7.01283431       4.78223326      15.03513654       0.82442424       0.66777174       0.21278809
O        2.34782042       3.27382668      20.78674555       0.01037518      -0.68162338       0.48754887
H        3.19676836       2.77666191      20.89092419      -0.60231015       0.94394560      -0.40685359
H        2.38852139       4.11295564      20.28572528       0.55458080      -0.13536599      -0.10601340
O        7.08981542       1.81362651      13.55817252      -1.13763055      -0.62632435      -0.74738088
H        6.67668486       0.91932846      13.65248539       0.29379978       0.44020349       0.27696477
H        7.63398380       1.99126617      14.36449874       0.36918618       0.05665084       0.45062824
O        0.73186472       9.21854413      19.92496253       0.18207678       0.91327697       1.22083521
H        1.44377897       9.30141824      20.61118373      -0.24900583      -0.72337074      -0.51230810
H        0.34623185       0.40198053      20.11712876       0.02089361      -0.52022595      -0.21290552
O        4.89761913       5.56692976      20.83731577      -0.10445947      -0.15983725      -0.41628580
H        5.39657898       6.37134278      21.08013042       0.21751825       0.19662372       0.05771743
H        4.98739955       4.96663797      21.59165017       0.00147532      -0.03172634       0.33555342
O        7.33821857       7.26435501      13.37620349       0.92457558      -0.28168647      -1.05468836
H        6.67515424       7.87331412      13.82309836      -0.46866840      -0.35140869       0.80777688
H        7.55473030       6.35716171      13.76145776      -0.41798883       0.48809144       0.74484616
108
Lattice="8.443 0.0 0.0 0.0 9.749 0.0 0.0 0.0 35.00789865" Properties=species:S:1:pos:R:3:forces:R:3 bias_charge=1.0 work_function=5.085535471046362 energy=-582.5661579520493 pbc="T T F"
Pt       7.03577500       5.77911800       6.50000000      -0.01514130      -0.10868122       0.12164654
Pt       1.40711200       5.77911700       6.50000400       0.04282349      -0.10929634       0.22038399
Pt       7.03577500       0.90461600       6.50000500       0.10737116      -0.10445039       0.16897077
Pt       4.22144400       5.77912000       6.50000600       0.06185386      -0.06312312       0.11159330
Pt       5.62860700       8.21637200       6.50000900      -0.08477768      -0.08372783      -0.02203555
Pt       1.40711200       0.90461500       6.50000900       0.03683859      -0.07455663       0.22964967
Pt       8.44294300       8.21637100       6.50001100       0.07357647      -0.05025283       0.02993706
Pt       4.22144300       0.90461400       6.50001200       0.05233347      -0.17605004       0.16326414
Pt       2.81428000       8.21637000       6.50001200       0.02077059      -0.06018509       0.05262427
Pt       5.62860600       3.34186500       6.50001600       0.18016047       0.02616213      -0.00088871
Pt       8.44294300       3.34186800       6.50001800       0.21696254       0.01703392       0.00281168
Pt       2.81428000       3.34186700       6.50001900       0.07593811       0.00788991       0.10096179
Pt       2.81428000       6.40710800       8.77208900      -0.35257069       0.07248513      -0.02018558
Pt       8.44294300       6.40710800       8.77208900       0.30180279       0.15783623      -0.10435964
Pt       5.62860600       6.40711000       8.77209100       0.05608683       0.41663701      -0.88917249
Pt       2.81428000       1.53260500       8.77209500      -0.25874275       0.17345524       0.18826926
Pt       8.44294300       1.53260400       8.77209600       0.00956026       0.29112328      -0.09816261
Pt       4.22144300       8.84436100       8.77209600      -0.05369607       0.71459100      -0.28078612
Pt       5.62860700       1.53260300       8.77209800      -0.44090204       0.37813591      -0.55765969
Pt       1.40711200       8.84436000       8.77209800      -0.08812772       0.27136919       0.15613526
Pt       4.22144400       3.96985500       8.77210100      -0.30797750      -0.03423285      -0.20748883
Pt       7.03577500       8.84436000       8.77210200       0.14013345       0.53310993      -0.33764278
Pt       1.40711200       3.96985800       8.77210300      -0.30093610       0.10949047       0.31714621
Pt       7.03577500       3.96985700       8.77210700      -0.23799316       0.10005235      -0.59946280
Pt       4.22288602       7.25422620      10.90615610      -0.38982761       0.00173546       0.54245521
Pt       5.49499214       4.86209112      10.93753427      -0.40742358      -0.53560703       0.30788908
Pt       1.24951895       2.30940721      11.11973916       0.27450535       0.20549026      -0.57598733
Pt       8.39618638       0.01350587      11.07149770      -0.01331805      -0.80940228      -0.14011727
Pt       6.97882078       7.25874276      10.94390789       0.13249365      -0.07656880       0.61711649
Pt       4.14499747       2.27967248      11.06719358      -0.17106862       0.10476575      -0.40519742
Pt       2.63250509       4.62119983      10.99692187       0.15341957       0.10443277       0.82885383
Pt       1.33181922       7.22556762      11.05764102       0.00682336      -0.01039631      -0.56385678
Pt       5.64947722       0.01027309      11.01615054      -0.40529978      -0.84069286       0.16214828
Pt       2.78443008       9.65792929      11.08530673      -0.21010637      -0.52551968       0.22965852
Pt       6.88574079       2.32498021      10.99838316       0.40429235      -0.03715286       0.14544170
Pt       8.15048269       4.74487082      11.03176029       1.04985997      -0.16045148       0.90161298
O        6.94496367       7.03848081      14.03215221      -0.47872883       1.04790940       1.65806646
H        7.81850194       7.53940123      14.33473274      -2.28819260      -0.67664057      -0.28013564
H        6.10129060       7.18171385      14.66542666       2.75830705      -0.20970519      -1.19104235
O        5.23773306       3.79913813      14.06301723      -0.07265730      -1.23044079      -0.53019103
H        5.48703935       4.22208517      14.94414688       0.08798919      -0.27647103       0.43449030
H        5.14906068       2.80022982      14.16056327       0.03269372       1.22607871       0.17889882
O        0.65641081       8.83512188      14.67423140       0.27574409      -1.11074515       2.02779646
H        0.78562740       8.70506665      15.69940970       0.30342268      -0.46366760      -1.06338004
H        0.13960501       9.62762486      14.72741797      -1.09489658       1.54211908      -0.38584821
O        0.57613038       4.34593010      19.89035242       1.26625758       0.84109845      -1.08381422
H        0.83001417       3.54756945      20.33831256       0.77619970      -1.56708128       0.58895992
H        8.16909354       4.50378521      20.25359886      -2.17693664       0.72282551       0.49517816
O        3.28946613       8.25223441      18.67523225       0.67110040      -0.41642377       0.76907589
H        3.32570639       7.37440809      19.15481471      -0.22354887       0.91282820      -0.52394929
H        3.46528316       8.89512545      19.46070693      -0.26686393      -0.62769465      -0.34665407
O        7.83253912       1.62906757      16.43461646       0.42596134       0.01015855      -0.35881360
H        7.01024057       1.44367931      15.93113271       0.01558491      -0.16029240       0.75981713
H        7.83780930       1.20917265      17.32043663      -0.55712042       0.05274122      -0.56660070
O        6.78102160       6.21575117      20.61692137       0.90152606       0.23189055       0.30761643
H        5.95909040       6.43003107      20.13336557      -0.18306430      -0.33856559       0.82475728
H        6.70050471       6.26359038      21.60511364      -0.58208529       0.17585256      -1.14231792
O        5.57169011       1.36288627      20.57194553      -1.10708672      -0.63612124      -1.34947072
H        6.26079097       0.76739300      20.22318617       0.82146263      -0.19596421       0.18063993
H        5.85660980       1.80354736      21.35553026       0.87222698       0.65967836       1.20556913
O        2.78365795       9.41344230      13.46109368      -1.06203651       1.66286915       0.02882943
H        3.34160488       8.64935566      13.51563248       0.39037854      -1.50881382       0.06332336
H        1.84356164       9.24790937      13.94871576       1.39907639      -0.40053677      -0.61948692
O        1.22888698       1.57916319      21.01693050       2.60492544       0.12057243      -0.42504458
H        0.80415839       1.61093554      21.87762798      -0.04446885       0.06310838       0.75590372
H        2.25695987       1.57029899      21.21884002      -2.73957361      -0.28092047      -0.37785287
O        2.82045952       1.83949443      16.78031764      -0.44779682      -0.67155925      -0.79323400
H        3.28309484       2.26576749      17.51712716       0.72316905       0.77286029       0.79289025
H        2.52255000       0.99028233      17.14131578      -0.22140420      -0.10503999       0.05036094
O        1.00871666       8.05412765      17.34441589       1.09059080      -0.64482118      -1.46406725
H        1.92783926       8.03977555      17.76173704      -0.14318611       0.21472117      -0.07051032
H        0.47229513       8.34772136      18.06282005      -1.27321485       0.68806799       1.37559386
O        6.00137575       4.84859398      16.30517167      -1.26386498      -0.20720988      -0.03583638
H        6.91930886       5.13790489      16.44664097       0.95056515       0.02513184       0.16978817
H        5.72201666       4.30726421      17.07058004       0.09268668      -0.02059800       0.03362289
O        4.62611491       3.03986007      18.48861236      -0.42749293       0.36096539      -1.82084928
H        4.31331904       3.74584611      19.10011251      -0.06962592       0.40963393       0.47918991
H        4.89160204       2.31186591      19.04023783       0.55047436      -0.78389294       1.02945176
O        7.71680592       9.24911469      19.77160182      -0.69348114      -0.58545314      -0.41293803
H        8.35011821       9.64794380      20.38909792       0.46328824       0.01787888       0.29185632
H        7.46697525       8.35018774      20.11911876       0.31435188       0.59062226       0.01548836
O        2.03996364       6.48779959      20.65425091       0.04802984      -1.59897412      -1.72124816
H        1.34644833       5.76277540      20.52992438       0.38094521       0.10861405      -0.29074454
H        1.69967657       7.02288009      21.33887270      -0.55573385       1.28050128       1.72107151
O        3.73374185       9.37509699      21.03389865      -0.05356720       0.72977995      -0.55507480
H        4.58146959       0.18988104      21.12378027      -0.77861404      -0.76351027       0.07632167
H        3.67164266       8.57834865      21.57842782       0.53293774       0.14066561       0.38503771
O        4.95777537       8.06729959      16.24519846       0.64175160       0.66479740      -0.65286848
H        5.28373867       8.93737691      15.84021621      -0.66883049      -0.78672041       0.98397879
H        4.65296750       8.25716740      17.16355318      -0.00149074      -0.04226197      -0.34534896
O        7.73813898       4.71216192      13.30178857       1.57070464       0.55712504      -0.17263038
H        7.38850605       5.61741442      13.63337055       0.05010115       0.09272701      -0.07457440
H        6.99635559       4.11409492      13.42673404      -1.25744826      -0.72961215       0.06134917
O        0.18928826       5.35005699      16.55475769      -0.74352344       2.32071896      -0.79775899
H        0.54339391       4.58133949      16.97479067       0.79126767      -0.66085064       1.10248682
H        0.46548951       6.23884938      16.96218628       0.06787556      -1.48221015      -0.19059009
O        4.88681651       0.82797061      15.17308400       1.80685416      -0.11787442      -0.89818122
H        4.29080467       0.27955877      14.63526809      -0.57323521       0.27674373      -0.40889393
H        4.35185590       1.16534056      15.89041948      -1.22315398       0.62210006       0.87093763
O        1.60350599       3.27669858      14.32434886      -1.51222358       0.71555178      -0.48252905
H        1.55895564       2.79002563      15.15240194       0.32042887      -0.38625923       0.77621511
H        0.70994234       3.74418103      14.26359540       0.87064006      -0.41701898      -0.14577195
O        4.13323226       4.91981891      20.19832630       0.02679960       0.27926740       0.88908228
H        4.58588723       4.61060456      21.04868899      -1.23368239       0.86823466      -1.24687598
H        3.29131469       5.49432494      20.36381780       1.26240581      -0.81866620       0.73795690
O        3.04056196       5.00354838      13.12519309       0.49134020       0.40415692      -0.42110506
H        3.90424192       4.55995299      13.35672889       0.71688077       0.12383542      -0.15569860
H        2.49746106       4.44074290      13.72963270      -1.03377753      -0.51628690       0.20490088
108
Lattice="8.443 0.0 0.0 0.0 9.749 0.0 0.0 0.0 35.34889414" Properties=species:S:1:pos:R:3:forces:R:3 bias_charge=1.0 work_function=6.46111110795932 energy=-582.6356694831239 pbc="T T F"
Pt       7.03577500       5.77911800       6.50000000       0.06832412       0.09670245       0.07214480
Pt       1.40711200       5.77911700       6.50000400       0.15917847      -0.03343500       0.12043195
Pt       7.03577500       0.90461600       6.50000500       0.13637686      -0.03919712       0.07714177
Pt       4.22144400       5.77912000       6.50000600       0.07625330       0.05875425       0.06151222
Pt       5.62860700       8.21637200       6.50000900      -0.01557865      -0.02186398       0.19423006
Pt       1.40711200       0.90461500       6.50000900       0.06039966       0.00055232       0.11150444
Pt       8.44294300       8.21637100       6.50001100      -0.05707966       0.03045428       0.12660290
Pt       4.22144300       0.90461400       6.50001200      -0.00430771      -0.00445141       0.04098957
Pt       2.81428000       8.21637000       6.50001200       0.01898650       0.00970862       0.08697075
Pt       5.62860600       3.34186500       6.50001600      -0.01765708      -0.00689120       0.21156014
Pt       8.44294300       3.34186800       6.50001800       0.13580380      -0.00802197       0.15047571
Pt       2.81428000       3.34186700       6.50001900      -0.11233562      -0.02243179       0.14938797
Pt       2.81428000       6.40710800       8.77208900      -0.35836051       0.00307521      -0.21693572
Pt       8.44294300       6.40710800       8.77208900      -0.17696328       0.17205532      -0.05405176
Pt       5.62860600       6.40711000       8.77209100      -0.14252130      -0.09313674      -0.40172932
Pt       2.81428000       1.53260500       8.77209500      -0.23607076       0.44779565      -0.38326745
Pt       8.44294300       1.53260400       8.77209600      -0.27932404      -0.02804125       0.24138735
Pt       4.22144300       8.84436100       8.77209600       0.35396244       0.08378007      -0.23421069
Pt       5.62860700       1.53260300       8.77209800      -0.01701301      -0.08730884      -0.23024524
Pt       1.40711200       8.84436000       8.77209800      -0.19562758      -0.16694726      -0.14365909
Pt       4.22144400       3.96985500       8.77210100       0.29181430      -0.05083615      -0.34873853
Pt       7.03577500       8.84436000       8.77210200      -0.00407745       0.03757600      -0.20088509
Pt       1.40711200       3.96985800       8.77210300      -0.25333926      -0.25172148      -0.26322472
Pt       7.03577500       3.96985700       8.77210700      -0.26901342       0.00851220      -0.40797786
Pt       4.14032938       7.02648386      10.97029167       0.00201121      -0.10507555       0.17733930
Pt       5.59208144       4.64856671      11.06172498      -0.13391067      -0.28982156      -0.00343882
Pt       1.31408980       2.01066486      11.06846098       0.03598305       0.08626052       0.31539668
Pt       8.42331115       9.35090044      11.05566894      -0.19052339       0.07780026      -0.48474745
Pt       6.90611492       7.03883717      11.02982191       0.63854015       0.00712382      -0.01522750
Pt       4.18568828       2.15050607      11.02390162       0.06900371       0.13396661      -0.08130563
Pt       2.79409350       4.49233531      10.94719850      -0.07970535       0.25314750       0.34497193
Pt       1.28413800       6.89728641      11.02831530       0.51709076       0.13678276       0.64175264
Pt       5.62138409       9.45591550      11.06264610       0.07917570      -0.39462684       0.28690322
Pt       2.82671305       9.56136946      10.91551223      -0.12901144      -0.38191040       0.49908174
Pt       6.90292570       2.26921783      11.03959975       0.60918534      -0.07794543      -0.22172460
Pt       8.39722716       4.58085243      10.98980855      -0.29700089      -0.25114648       0.11731901
O        7.26483178       2.39744827      14.68890737      -0.89745648      -0.54114417      -2.62342677
H        7.71739835       2.17416578      15.49995389       0.64149645      -0.79029228       1.41316120
H        7.10731560       1.53195296      14.18041920       0.09777938       1.49406907       1.21070440
O        1.99146000       0.10562315      20.13441550      -1.15697566       0.57255958       0.41994321
H        1.86064499       9.35751811      20.95943425       0.10108454      -0.08101279       0.11187049
H        2.80385459       9.51984050      19.76238010       1.06681595      -0.55926269      -0.52354059
O        4.42082900       6.19258039      20.86548847       0.51098426       0.11348773       1.10812658
H        5.40316300       6.27297001      20.75769893      -0.14541770      -0.36876143      -0.32971708
H        4.35744865       6.11988757      21.85399854      -0.33447556       0.11003553      -0.91764802
O        0.37551278       9.00010732      14.44746871      -0.52510889       0.03283272      -1.52417775
H        0.20200075       8.50746782      15.33403671      -0.59110457       0.30229297       0.09193903
H        7.95118964       8.99271745      13.92738872       1.01209840      -0.19385667       1.03271582
O        5.16200994       3.43834927      19.12817289      -2.64837032       0.13951180      -0.64117681
H        5.83929399       3.05145953      19.67804615       0.90772340      -0.42510417       0.62870445
H        4.26583895       3.19279808      19.56329911       1.87741438       0.52537737      -0.42472703
O        4.99249692       8.89129111      19.35810337       0.00196855       1.45349982       1.30890971
H        4.95827706       9.32179259      20.31400363       0.33638117      -1.07706397      -1.63348542
H        4.98912072       7.93035627      19.40984468      -0.34568983      -0.43072343       0.59002825
O        4.06475651       1.52504008      14.25407490       1.06143769      -0.41245263       0.56544875
H        3.48870672       1.82292075      13.55869052      -0.80120708       0.44535737      -0.88044415
H        3.45338948       1.39044118      15.03311214      -0.01494658      -0.29534844       0.18139502
O        2.63403045       0.97145388      16.45215167      -2.19958199      -0.98903994      -1.91962315
H        1.61727462       1.13319118      16.60556885       1.34819767      -0.39754567      -0.14947818
H        3.09149787       1.39407318      17.13936291       1.17194833       1.09938944       1.99749677
O        8.06870350       7.86483143      16.56822131      -0.21510690      -0.94821806       0.44499134
H        7.84289629       6.87093006      16.79738027       0.28894127       1.37710629      -0.32193196
H        7.81920019       8.37363637      17.37217320       0.30603585       0.17521090      -0.10060154
O        5.87231468       9.22685016      13.37446334      -1.17293642      -1.21230952       0.41019021
H        5.43516941       8.35027870      13.75215280       0.83961372       1.26726602      -0.82977829
H        5.17236551       0.17619218      13.52885437      -0.10912204       0.20281344       0.70348728
O        5.34349749       0.92913751      21.37489414       1.97417000      -1.93523556       3.28756951
H        5.35399389       0.86961639      22.41365180       0.20560128      -0.26217888      -2.41017233
H        4.61223271       1.50444684      21.27017984      -2.27965159       1.89612641      -0.79374407
O        7.52641105       5.47525875      17.06333262      -1.20705119      -1.78207359       0.24690737
H        6.57600552       5.14224797      16.90740216       1.52471239       0.54892593       0.32782344
H        7.97255730       4.85465132      17.72259265      -0.42672277       0.35896539      -0.05424479
O        7.54223625       2.45806104      20.84011336      -0.53481292      -0.05149094       0.32376653
H        7.16721282       2.99083660      21.55790895       0.60079375       1.05212028       0.25971294
H        6.88927288       1.74246018      21.02674018       0.12017578      -0.80643226      -0.68053956
O        0.28183460       4.97996422      14.57248312       0.62505128       0.33929571       0.59174729
H        7.93396348       4.44691475      14.37624009      -0.07764536      -0.06496297       0.31178812
H        0.28744312       5.16010690      15.56426365      -0.56966946      -0.36131017      -1.22067268
O        4.98706360       6.45846591      13.97915349       1.63495498       0.07502155      -2.28724621
H        5.55631652       5.85009280      13.37435606      -1.10392254       1.12484938       1.10185304
H        4.63531981       5.90550989      14.67484309      -0.42401541      -0.44949456       1.03995219
O        1.27587558       1.93475277      13.34194665      -1.03987093       1.72842355      -0.54684773
H        0.95357484       1.03206151      13.59509777      -0.21648057       0.13710329       0.30255368
H        0.51491861       2.64667302      13.48438412       1.34876753      -1.97638088       0.29837029
O        3.17043337       2.55562807      20.94426673       0.30709234       0.55773261       1.18905372
H        3.03934698       2.71817947      21.91201214       0.08811900       0.28967179      -0.72206486
H        2.54638510       1.84050807      20.77141220      -0.66444591      -0.87292067      -0.44388984
O        4.43969541       4.78537581      16.11915168       0.21806039       0.31994671       0.07423363
H        4.47902871       4.29983994      16.95800765      -0.05716992      -0.11370640       0.56600571
H        4.67791531       4.12218988      15.46285421       0.07378651      -0.77658245      -0.33570186
O        1.61534778       6.89881943      13.17560025       0.98537751       1.75672408      -0.61634814
H        1.18313273       6.16822615      13.59010941      -1.13153661      -2.46137144       0.84005427
H        1.22624172       7.64392543      13.72734815      -0.08848757       0.90652929      -0.46717619
O        7.33701852       6.13923486      20.64520285      -0.36792241       0.57167861       0.12676528
H        7.57738416       7.08503982      20.64490469       0.21315841      -0.10424372      -0.28535123
H        7.27054859       6.00819701      21.60411128       0.11947692      -0.42997409       0.32215087
O        0.77171985       3.86016548      18.74790843      -0.46607786      -0.55337907      -1.70039328
H        1.37650138       4.60652181      18.82145744       0.77227841       1.01045956       0.38504267
H        0.62280975       3.53397606      19.63175630      -0.46718296      -0.30107955       1.04285061
O        0.11313466       1.56719874      17.02543720      -0.36331773      -0.74665403       0.25035544
H        8.14451414       0.98280979      17.75622122       0.26929655       0.63420137      -0.78150296
H        0.59393413       2.28069083      17.47586212      -0.28141110       0.71717059       0.71193261
O        2.18920281       6.24556854      19.25015791      -0.89853604       0.34372970      -0.93531928
H        2.04745371       7.08776308      18.73501199       0.63639848      -1.01485297       0.85894218
H        3.03471279       6.21262319      19.74755818       0.27478708       0.51020173       0.01414433
O        7.67944321       9.48398037      18.81818049       0.72990959      -0.33957337       1.72669442
H        6.94077349       9.03466645      19.31569563      -0.37249117       0.74098835      -0.76182625
H        8.35871517       9.62085355      19.54911219      -0.32202543      -0.11691397      -1.12278407
