3
Properties=species:S:1:pos:R:3:initial_charges:R:1:forces:R:3 total_charge=1.0 energy=-439152.57170186704 pbc="F F F"
Ag       0.00000000       0.05592944       1.72055515       0.33280670       0.00000000      -0.02106655      -1.03758301
Ag       0.00000000       1.46383109      -0.94128766       0.33803130       0.00000000      -0.89271390       0.57879344
Ag       0.00000000      -1.51976053      -0.77926848       0.32916200       0.00000000       0.91378045       0.45878957
3
Properties=species:S:1:pos:R:3:initial_charges:R:1:forces:R:3 total_charge=1.0 energy=-439152.5932287948 pbc="F F F"
Ag       0.00000000      -0.15740866       1.74935041       0.37351303      -0.00000000       0.33530504      -0.37926187
Ag       0.00000000       1.31167364      -1.03642979       0.34643976      -0.00000000       0.99789887       0.35720815
Ag       0.00000000      -1.15426497      -0.71292162       0.28004721      -0.00000000      -1.33320390       0.02205373
3
Properties=species:S:1:pos:R:3:initial_charges:R:1:forces:R:3 total_charge=1.0 energy=-439152.4097614644 pbc="F F F"
Ag       0.00000000       0.36241756       1.86083611       0.36254933      -0.00000000      -0.20959838      -0.69914353
Ag       0.00000000       1.23194998      -0.75256584       0.25856866      -0.00000000      -0.54500319       0.19526927
Ag       0.00000000      -1.59436754      -1.10827128       0.37888202       0.00000000       0.75460157       0.50387427
3
Properties=species:S:1:pos:R:3:initial_charges:R:1:forces:R:3 total_charge=1.0 energy=-439152.79959178565 pbc="F F F"
Ag       0.00000000      -0.19841320       1.67524998       0.35323051       0.00000000       0.23944980      -0.59788240
Ag       0.00000000       1.42420852      -0.81584928       0.34021969       0.00000000      -0.13580902       0.45858828
Ag       0.00000000      -1.22579532      -0.85940170       0.30654981      -0.00000000      -0.10364078       0.13929411
3
Properties=species:S:1:pos:R:3:initial_charges:R:1:forces:R:3 total_charge=-1.0 energy=-439160.5140715249 pbc="F F F"
Ag      -0.00000000      -0.92381857       2.22078027      -0.41227159       0.00000000      -0.23285797       0.29649654
Ag      -0.00000000       1.52208691      -1.85135661      -0.40816052       0.00000000       0.26222345      -0.42220410
Ag      -0.00000000      -0.59826833      -0.36942465      -0.17956789      -0.00000000      -0.02936548       0.12570756
3
Properties=species:S:1:pos:R:3:initial_charges:R:1:forces:R:3 total_charge=-1.0 energy=-439160.6137495543 pbc="F F F"
Ag      -0.00000000      -1.51804040       2.00004702      -0.40366911      -0.00000000      -0.05731181       0.25833680
Ag      -0.00000000       1.02099950      -2.31344432      -0.41261554      -0.00000000       0.15575303       0.02818214
Ag      -0.00000000       0.49704090       0.31339629      -0.18371536      -0.00000000      -0.09844121      -0.28651894
3
Properties=species:S:1:pos:R:3:initial_charges:R:1:forces:R:3 total_charge=-1.0 energy=-439160.76675917994 pbc="F F F"
Ag      -0.00000000      -1.33429509       2.31508579      -0.40444122      -0.00000000       0.00873622      -0.01293580
Ag      -0.00000000       1.33329516      -2.31311468      -0.40332427      -0.00000000       0.00892842      -0.01325955
Ag      -0.00000000       0.00099993      -0.00197211      -0.19223452       0.00000000      -0.01766465       0.02619534
3
Properties=species:S:1:pos:R:3:initial_charges:R:1:forces:R:3 total_charge=1.0 energy=-439152.76778983837 pbc="F F F"
Ag       0.00000000       0.07781314       1.63930129       0.33083548       0.00000000      -0.15343514      -0.67975885
Ag       0.00000000       1.39675982      -0.79095830       0.32189058       0.00000000      -0.58763144       0.22283532
Ag       0.00000000      -1.47457295      -0.84834399       0.34727395       0.00000000       0.74106659       0.45692354
3
Properties=species:S:1:pos:R:3:initial_charges:R:1:forces:R:3 total_charge=-1.0 energy=-439160.73475586844 pbc="F F F"
Ag      -0.00000000      -1.27422361       2.35943385      -0.40138731      -0.00000000      -0.02381856      -0.09105077
Ag      -0.00000000       1.47512562      -2.25658102      -0.40865788      -0.00000000      -0.17873998       0.13638335
Ag      -0.00000000      -0.20090201      -0.10285383      -0.18995480       0.00000000       0.20255854      -0.04533258
3
Properties=species:S:1:pos:R:3:initial_charges:R:1:forces:R:3 total_charge=-1.0 energy=-439160.08251254266 pbc="F F F"
Ag      -0.00000000      -0.52883796       2.00484610      -0.41702098      -0.00000000      -0.21513218       0.33701544
Ag      -0.00000000       1.51387744      -1.43278744      -0.42287750      -0.00000000       0.07420220      -0.30892992
Ag      -0.00000000      -0.98503947      -0.57205967      -0.16010153      -0.00000000       0.14092998      -0.02808552
3
Properties=species:S:1:pos:R:3:initial_charges:R:1:forces:R:3 total_charge=1.0 energy=-439152.81117023056 pbc="F F F"
Ag       0.00000000      -0.09781573       1.68334105       0.35885699       0.00000000       0.05185118      -0.68315384
Ag       0.00000000       1.33746833      -0.77718645       0.32185725       0.00000000       0.33606238       0.37160086
Ag       0.00000000      -1.23965260      -0.90615560       0.31928577       0.00000000      -0.38791356       0.31155298
3
Properties=species:S:1:pos:R:3:initial_charges:R:1:forces:R:3 total_charge=1.0 energy=-439152.6703213735 pbc="F F F"
Ag       0.00000000      -0.20445697       1.74219834       0.35224032       0.00000000       0.16652322      -0.94760762
Ag       0.00000000       1.49816755      -0.83860094       0.34115880       0.00000000      -0.68805497       0.51150148
Ag       0.00000000      -1.29371058      -0.90359840       0.30660088       0.00000000       0.52153175       0.43610614
3
Properties=species:S:1:pos:R:3:initial_charges:R:1:forces:R:3 total_charge=-1.0 energy=-439160.42755292193 pbc="F F F"
Ag      -0.00000000      -1.53738734       1.78187938      -0.41879966      -0.00000000      -0.01085468       0.25901579
Ag      -0.00000000       0.81425348      -2.18099823      -0.40634482       0.00000000       0.23773195      -0.47053276
Ag      -0.00000000       0.72313386       0.39911786      -0.17485553      -0.00000000      -0.22687727       0.21151697
3
Properties=species:S:1:pos:R:3:initial_charges:R:1:forces:R:3 total_charge=1.0 energy=-439152.7440887208 pbc="F F F"
Ag       0.00000000       0.08051280       1.60483811       0.32472475      -0.00000000      -0.41402221      -0.26252442
Ag       0.00000000       1.39476927      -0.67173455       0.31128830      -0.00000000      -0.34083309      -0.25484354
Ag       0.00000000      -1.47528206      -0.93310455       0.36398694      -0.00000000       0.75485531       0.51736796
3
Properties=species:S:1:pos:R:3:initial_charges:R:1:forces:R:3 total_charge=1.0 energy=-439152.602184062 pbc="F F F"
Ag       0.00000000      -0.15465409       1.68676265       0.32813285      -0.00000000       0.10692513      -0.97345237
Ag       0.00000000       1.57392323      -0.73895215       0.34041203       0.00000000      -0.94678708       0.43933005
Ag       0.00000000      -1.41926914      -0.94781151       0.33145512       0.00000000       0.83986195       0.53412233
3
Properties=species:S:1:pos:R:3:initial_charges:R:1:forces:R:3 total_charge=-1.0 energy=-439160.7563208921 pbc="F F F"
Ag      -0.00000000      -1.38574362       2.32564827      -0.40361348       0.00000000       0.07860754      -0.11850050
Ag      -0.00000000       1.36988118      -2.33895025      -0.40535645       0.00000000      -0.08195994       0.15396189
Ag      -0.00000000       0.01586244       0.01330098      -0.19103008      -0.00000000       0.00335240      -0.03546139
3
Properties=species:S:1:pos:R:3:initial_charges:R:1:forces:R:3 total_charge=1.0 energy=-439152.68934485374 pbc="F F F"
Ag       0.00000000      -0.24238652       1.72889133       0.35225709      -0.00000000       0.20798742      -0.86766274
Ag       0.00000000       1.50693945      -0.83495620       0.34533416      -0.00000000      -0.63870354       0.50324517
Ag       0.00000000      -1.26455294      -0.89393612       0.30240874      -0.00000000       0.43071611       0.36441757
3
Properties=species:S:1:pos:R:3:initial_charges:R:1:forces:R:3 total_charge=-1.0 energy=-439160.70119878673 pbc="F F F"
Ag      -0.00000000      -1.48927461       2.15979027      -0.39695137       0.00000000      -0.01563161       0.16206624
Ag      -0.00000000       1.19479588      -2.37440785      -0.41454131       0.00000000       0.01198627       0.25285231
Ag      -0.00000000       0.29447873       0.21461657      -0.18850733       0.00000000       0.00364534      -0.41491855
3
Properties=species:S:1:pos:R:3:initial_charges:R:1:forces:R:3 total_charge=-1.0 energy=-439160.72101683944 pbc="F F F"
Ag      -0.00000000      -1.47998296       2.21228628      -0.40002610      -0.00000000       0.07455995       0.03482825
Ag      -0.00000000       1.23944976      -2.37896444      -0.41067825       0.00000000      -0.01103720       0.24080072
Ag      -0.00000000       0.24053320       0.16667716      -0.18929566      -0.00000000      -0.06352276      -0.27562896
3
Properties=species:S:1:pos:R:3:initial_charges:R:1:forces:R:3 total_charge=1.0 energy=-439152.772276996 pbc="F F F"
Ag       0.00000000      -0.13382020       1.44606941       0.31156451       0.00000000       0.59306848       1.06596365
Ag       0.00000000       1.48370679      -0.71249132       0.35886042       0.00000000      -0.35354655      -0.00390220
Ag       0.00000000      -1.34988659      -0.73357910       0.32957508       0.00000000      -0.23952193      -1.06206145
3
Properties=species:S:1:pos:R:3:initial_charges:R:1:forces:R:3 total_charge=-1.0 energy=-439160.34431601217 pbc="F F F"
Ag      -0.00000000      -1.56210684       1.67022774      -0.41583126       0.00000000      -0.01409522       0.27508547
Ag      -0.00000000       0.75074230      -2.15548799      -0.41374078       0.00000000       0.23660423      -0.18793608
Ag      -0.00000000       0.81136454       0.48525925      -0.17042797       0.00000000      -0.22250901      -0.08714939
3
Properties=species:S:1:pos:R:3:initial_charges:R:1:forces:R:3 total_charge=1.0 energy=-439152.8676937223 pbc="F F F"
Ag       0.00000000      -0.15090295       1.61735063       0.34022819       0.00000000       0.10689632      -0.49841766
Ag       0.00000000       1.43195725      -0.71617422       0.33414945       0.00000000      -0.29795180       0.28654015
Ag       0.00000000      -1.28105429      -0.90117742       0.32562235      -0.00000000       0.19105548       0.21187751
3
Properties=species:S:1:pos:R:3:initial_charges:R:1:forces:R:3 total_charge=1.0 energy=-439152.71105954004 pbc="F F F"
Ag       0.00000000       0.01792775       1.50846156       0.30158092       0.00000000      -0.43447281      -0.05482405
Ag       0.00000000       1.51075216      -0.62746885       0.33021625      -0.00000000      -0.38492986      -0.34577227
Ag       0.00000000      -1.52867990      -0.88099370       0.36820283      -0.00000000       0.81940267       0.40059632
3
Properties=species:S:1:pos:R:3:initial_charges:R:1:forces:R:3 total_charge=-1.0 energy=-439160.7575590102 pbc="F F F"
Ag      -0.00000000      -1.34929581       2.29944883      -0.40498910       0.00000000      -0.02306887      -0.04250738
Ag      -0.00000000       1.47370894      -2.21823652      -0.40342732       0.00000000      -0.03416808      -0.02125479
Ag      -0.00000000      -0.12441313      -0.08121331      -0.19158358      -0.00000000       0.05723695       0.06376217
3
Properties=species:S:1:pos:R:3:initial_charges:R:1:forces:R:3 total_charge=1.0 energy=-439152.69148094754 pbc="F F F"
Ag       0.00000000       0.00246433       1.41090775       0.28507085       0.00000000      -0.10182858       0.34799768
Ag       0.00000000       1.57408259      -0.68684876       0.35470958      -0.00000000      -0.42472173      -0.24842572
Ag       0.00000000      -1.57654692      -0.72406000       0.36021958      -0.00000000       0.52655031      -0.09957196
3
Properties=species:S:1:pos:R:3:initial_charges:R:1:forces:R:3 total_charge=1.0 energy=-439152.8017605331 pbc="F F F"
Ag       0.00000000      -0.04619554       1.57807868       0.32286007       0.00000000      -0.30610121      -0.27840950
Ag       0.00000000       1.44698276      -0.60961901       0.32084326      -0.00000000      -0.35289014      -0.18575913
Ag       0.00000000      -1.40078724      -0.96846067       0.35629666       0.00000000       0.65899135       0.46416863
3
Properties=species:S:1:pos:R:3:initial_charges:R:1:forces:R:3 total_charge=-1.0 energy=-439160.7040995205 pbc="F F F"
Ag      -0.00000000      -1.21687682       2.31853842      -0.40579865       0.00000000      -0.11046042      -0.05662300
Ag      -0.00000000       1.55149333      -2.10989196      -0.40586486       0.00000000      -0.10143886      -0.07223872
Ag      -0.00000000      -0.33461652      -0.20864747      -0.18833650      -0.00000000       0.21189928       0.12886173
3
Properties=species:S:1:pos:R:3:initial_charges:R:1:forces:R:3 total_charge=1.0 energy=-439152.4102839231 pbc="F F F"
Ag       0.00000000       0.12350897       1.76138720       0.32982120       0.00000000      -0.26520748      -0.57783793
Ag       0.00000000       1.43128258      -0.58967243       0.28064521       0.00000000      -0.65808060      -0.06400597
Ag       0.00000000      -1.55479155      -1.17171577       0.38953358       0.00000000       0.92328808       0.64184390
3
Properties=species:S:1:pos:R:3:initial_charges:R:1:forces:R:3 total_charge=1.0 energy=-439152.5911444026 pbc="F F F"
Ag       0.00000000      -0.20028250       1.76701706       0.36945616      -0.00000000       0.39314120      -0.24666355
Ag       0.00000000       1.36385209      -1.09355129       0.35934051      -0.00000000       0.35994156       0.41380380
Ag       0.00000000      -1.16356958      -0.67346677       0.27120334       0.00000000      -0.75308277      -0.16714025
3
Properties=species:S:1:pos:R:3:initial_charges:R:1:forces:R:3 total_charge=1.0 energy=-439152.4254569921 pbc="F F F"
Ag       0.00000000      -0.16183438       1.90748334       0.40126042       0.00000000       0.09307796      -1.13334196
Ag       0.00000000       1.32680412      -0.86415773       0.30139194       0.00000000       0.82752674       0.62598690
Ag       0.00000000      -1.16496974      -1.04332662       0.29734763       0.00000000      -0.92060470       0.50735506
3
Properties=species:S:1:pos:R:3:initial_charges:R:1:forces:R:3 total_charge=1.0 energy=-439152.8145063465 pbc="F F F"
Ag       0.00000000      -0.12773584       1.47996555       0.31683966      -0.00000000       0.51015950       0.70828927
Ag       0.00000000       1.46804076      -0.73942197       0.35631387       0.00000000      -0.38357691       0.09740043
Ag       0.00000000      -1.34030492      -0.74054459       0.32684646       0.00000000      -0.12658259      -0.80568970
3
Properties=species:S:1:pos:R:3:initial_charges:R:1:forces:R:3 total_charge=-1.0 energy=-439160.7624407329 pbc="F F F"
Ag      -0.00000000      -1.44202291       2.27559148      -0.40412168      -0.00000000       0.06867357      -0.08382468
Ag      -0.00000000       1.41339911      -2.29405751      -0.40441951      -0.00000000      -0.04500488       0.09806878
Ag      -0.00000000       0.02862381       0.01846504      -0.19145880       0.00000000      -0.02366869      -0.01424410
3
Properties=species:S:1:pos:R:3:initial_charges:R:1:forces:R:3 total_charge=1.0 energy=-439152.7093805976 pbc="F F F"
Ag       0.00000000       0.00389982       1.46833343       0.29164759       0.00000000      -0.02333688      -0.11047989
Ag       0.00000000       1.56611451      -0.73105095       0.35321853       0.00000000      -0.63710195       0.03776722
Ag       0.00000000      -1.57001433      -0.73728349       0.35513387      -0.00000000       0.66043884       0.07271267
3
Properties=species:S:1:pos:R:3:initial_charges:R:1:forces:R:3 total_charge=1.0 energy=-439152.5398781506 pbc="F F F"
Ag       0.00000000       0.07198717       1.54925182       0.31621730      -0.00000000      -1.29949862       1.11622476
Ag       0.00000000       1.37513511      -0.50032732       0.29841813      -0.00000000       0.58943800      -1.68256475
Ag       0.00000000      -1.44712227      -1.04892551       0.38536458       0.00000000       0.71006062       0.56633999
3
Properties=species:S:1:pos:R:3:initial_charges:R:1:forces:R:3 total_charge=-1.0 energy=-439160.6094229439 pbc="F F F"
Ag      -0.00000000      -1.58805279       1.97798380      -0.40444861       0.00000000       0.06183896       0.15672760
Ag      -0.00000000       1.08377630      -2.31042663      -0.41238416      -0.00000000       0.13278228       0.13590728
Ag      -0.00000000       0.50427648       0.33244184      -0.18316722       0.00000000      -0.19462124      -0.29263488
3
Properties=species:S:1:pos:R:3:initial_charges:R:1:forces:R:3 total_charge=-1.0 energy=-439160.4562282809 pbc="F F F"
Ag      -0.00000000      -1.57821768       1.83346866      -0.40335816       0.00000000       0.03726616       0.22390354
Ag      -0.00000000       0.88538922      -2.28972757      -0.42094465       0.00000000       0.18653803       0.24713186
Ag      -0.00000000       0.69282846       0.45625791      -0.17569718      -0.00000000      -0.22380418      -0.47103540
3
Properties=species:S:1:pos:R:3:initial_charges:R:1:forces:R:3 total_charge=-1.0 energy=-439160.73587969865 pbc="F F F"
Ag      -0.00000000      -1.52134578       2.20450368      -0.40816010      -0.00000000       0.15117660      -0.08406074
Ag      -0.00000000       1.30580388      -2.32423212      -0.40177623      -0.00000000       0.04551270       0.05313780
Ag      -0.00000000       0.21554190       0.11972744      -0.19006366       0.00000000      -0.19668929       0.03092295
3
Properties=species:S:1:pos:R:3:initial_charges:R:1:forces:R:3 total_charge=-1.0 energy=-439160.1748190076 pbc="F F F"
Ag      -0.00000000      -0.65179060       2.03077011      -0.41431547       0.00000000      -0.22954302       0.46594093
Ag      -0.00000000       1.55381561      -1.48188217      -0.42165021       0.00000000       0.15249012      -0.34652470
Ag      -0.00000000      -0.90202501      -0.54888893      -0.16403431       0.00000000       0.07705290      -0.11941623
3
Properties=species:S:1:pos:R:3:initial_charges:R:1:forces:R:3 total_charge=1.0 energy=-439152.836302667 pbc="F F F"
Ag       0.00000000      -0.05587728       1.54891122       0.31988152      -0.00000000      -0.22484625      -0.19025748
Ag       0.00000000       1.45609754      -0.63753120       0.32916739      -0.00000000      -0.36644185      -0.13925839
Ag       0.00000000      -1.40022027      -0.91138103       0.35095110       0.00000000       0.59128810       0.32951587
3
Properties=species:S:1:pos:R:3:initial_charges:R:1:forces:R:3 total_charge=-1.0 energy=-439160.76679727586 pbc="F F F"
Ag      -0.00000000      -1.33378107       2.31434226      -0.40398615       0.00000000       0.00698585      -0.01183890
Ag      -0.00000000       1.33382182      -2.31389692      -0.40377896       0.00000000       0.00689016      -0.01166484
Ag      -0.00000000      -0.00004075      -0.00044634      -0.19223489      -0.00000000      -0.01387601       0.02350375
3
Properties=species:S:1:pos:R:3:initial_charges:R:1:forces:R:3 total_charge=1.0 energy=-439152.66393758234 pbc="F F F"
Ag       0.00000000       0.03246632       1.55659660       0.31700906       0.00000000      -0.87868617       0.46473341
Ag       0.00000000       1.40855156      -0.53408424       0.30627779      -0.00000000       0.15467102      -1.00908570
Ag       0.00000000      -1.44101788      -1.02251336       0.37671316       0.00000000       0.72401515       0.54435229
3
Properties=species:S:1:pos:R:3:initial_charges:R:1:forces:R:3 total_charge=-1.0 energy=-439159.8894531986 pbc="F F F"
Ag      -0.00000000      -0.42741209       1.95609656      -0.40093618       0.00000000      -0.41033810       0.27530420
Ag      -0.00000000       1.58767271      -1.34543721      -0.44339560      -0.00000000      -0.37376946      -0.35676167
Ag      -0.00000000      -1.16026062      -0.61066035      -0.15566823       0.00000000       0.78410756       0.08145747
3
Properties=species:S:1:pos:R:3:initial_charges:R:1:forces:R:3 total_charge=-1.0 energy=-439159.96784103935 pbc="F F F"
Ag      -0.00000000      -1.53428183       1.42774595      -0.39141385       0.00000000       0.04403413       0.26858694
Ag      -0.00000000       0.49950257      -2.14963177      -0.44769171       0.00000000       0.32805377       0.41270920
Ag      -0.00000000       1.03477926       0.72188483      -0.16089443      -0.00000000      -0.37208790      -0.68129614
3
Properties=species:S:1:pos:R:3:initial_charges:R:1:forces:R:3 total_charge=-1.0 energy=-439160.7133269016 pbc="F F F"
Ag      -0.00000000      -1.48384012       2.19088614      -0.39840631       0.00000000       0.03580243       0.09128760
Ag      -0.00000000       1.22169656      -2.37846924      -0.41259356       0.00000000      -0.00420692       0.25210175
Ag      -0.00000000       0.26214356       0.18758210      -0.18900012      -0.00000000      -0.03159550      -0.34338936
3
Properties=species:S:1:pos:R:3:initial_charges:R:1:forces:R:3 total_charge=-1.0 energy=-439159.7901860611 pbc="F F F"
Ag      -0.00000000      -0.43495246       2.14718637      -0.41911701       0.00000000      -0.49483377      -0.32130422
Ag      -0.00000000       1.63681698      -1.45187627      -0.41779652       0.00000000      -0.52141665      -0.26972591
Ag       0.00000000      -1.20186452      -0.69531109      -0.16308648      -0.00000000       1.01625042       0.59103013
3
Properties=species:S:1:pos:R:3:initial_charges:R:1:forces:R:3 total_charge=1.0 energy=-439152.7252611626 pbc="F F F"
Ag       0.00000000      -0.04661162       1.43771827       0.29245156       0.00000000       0.26419103       0.30435612
Ag       0.00000000       1.56534814      -0.73350964       0.36209612       0.00000000      -0.62468109       0.04413987
Ag       0.00000000      -1.51873651      -0.70420963       0.34545231       0.00000000       0.36049006      -0.34849598
3
Properties=species:S:1:pos:R:3:initial_charges:R:1:forces:R:3 total_charge=1.0 energy=-439152.5928913736 pbc="F F F"
Ag       0.00000000       0.15073772       1.78887911       0.35654251       0.00000000      -0.10742429      -1.04286985
Ag       0.00000000       1.33270792      -0.89072548       0.30537526       0.00000000      -0.62699653       0.50101310
Ag       0.00000000      -1.48344564      -0.89815464       0.33808223       0.00000000       0.73442082       0.54185675
3
Properties=species:S:1:pos:R:3:initial_charges:R:1:forces:R:3 total_charge=1.0 energy=-439152.8863117529 pbc="F F F"
Ag       0.00000000      -0.01202441       1.58075220       0.33969183       0.00000000       0.17623630      -0.07547716
Ag       0.00000000       1.32832399      -0.84161993       0.33756311       0.00000000       0.09503283       0.18813696
Ag       0.00000000      -1.31629958      -0.73913327       0.32274506       0.00000000      -0.27126913      -0.11265979
3
Properties=species:S:1:pos:R:3:initial_charges:R:1:forces:R:3 total_charge=-1.0 energy=-439160.75378479087 pbc="F F F"
Ag      -0.00000000      -1.43909325       2.24099985      -0.40018270       0.00000000       0.01295248       0.05996040
Ag      -0.00000000       1.31456685      -2.33484925      -0.40848234       0.00000000      -0.01677852       0.13639548
Ag      -0.00000000       0.12452639       0.09384840      -0.19133495      -0.00000000       0.00382604      -0.19635589
3
Properties=species:S:1:pos:R:3:initial_charges:R:1:forces:R:3 total_charge=-1.0 energy=-439160.03266128286 pbc="F F F"
Ag       0.00000000      -0.46551675       2.00200089      -0.42086641      -0.00000000      -0.37014589       0.31764034
Ag       0.00000000       1.49893182      -1.40632061      -0.42100828      -0.00000000       0.08963113      -0.47962122
Ag       0.00000000      -1.03341507      -0.59568128      -0.15812532       0.00000000       0.28051476       0.16198088
3
Properties=species:S:1:pos:R:3:initial_charges:R:1:forces:R:3 total_charge=-1.0 energy=-439160.63752958487 pbc="F F F"
Ag      -0.00000000      -1.58079594       2.02241447      -0.40307041      -0.00000000       0.06475196       0.13850420
Ag      -0.00000000       1.12687566      -2.32612039      -0.41225360      -0.00000000       0.10450196       0.17576895
Ag      -0.00000000       0.45392027       0.30370492      -0.18467598       0.00000000      -0.16925393      -0.31427315
3
Properties=species:S:1:pos:R:3:initial_charges:R:1:forces:R:3 total_charge=1.0 energy=-439152.7823941895 pbc="F F F"
Ag       0.00000000       0.17072619       1.66285618       0.35615460      -0.00000000      -0.30992653      -0.34921164
Ag       0.00000000       1.20192845      -0.79852226       0.30185889      -0.00000000       0.61500590      -0.07915917
Ag       0.00000000      -1.37265464      -0.86433492       0.34198651      -0.00000000      -0.30507937       0.42837081
3
Properties=species:S:1:pos:R:3:initial_charges:R:1:forces:R:3 total_charge=-1.0 energy=-439159.6643252357 pbc="F F F"
Ag      -0.00000000      -0.33465773       1.80037663      -0.44483254      -0.00000000      -0.40693815       0.58640356
Ag      -0.00000000       1.41745433      -1.07804667      -0.41219437      -0.00000000       0.96243741      -0.72298798
Ag      -0.00000000      -1.08279660      -0.72233097      -0.14297309      -0.00000000      -0.55549926       0.13658442
3
Properties=species:S:1:pos:R:3:initial_charges:R:1:forces:R:3 total_charge=1.0 energy=-439152.82528749784 pbc="F F F"
Ag       0.00000000      -0.04430452       1.63796707       0.33901222      -0.00000000       0.20654105      -0.50683846
Ag       0.00000000       1.39742402      -0.90087211       0.34562933      -0.00000000      -0.46466328       0.44718673
Ag       0.00000000      -1.35311950      -0.73709597       0.31535846      -0.00000000       0.25812223       0.05965174
3
Properties=species:S:1:pos:R:3:initial_charges:R:1:forces:R:3 total_charge=1.0 energy=-439152.61831225076 pbc="F F F"
Ag       0.00000000      -0.09265619       1.69053486       0.32928680      -0.00000000       0.02984582      -0.97196872
Ag       0.00000000       1.53281685      -0.71839790       0.32919549       0.00000000      -0.88861882       0.39143371
Ag       0.00000000      -1.44016066      -0.97213796       0.34151772       0.00000000       0.85877300       0.58053501
3
Properties=species:S:1:pos:R:3:initial_charges:R:1:forces:R:3 total_charge=-1.0 energy=-439160.54163393815 pbc="F F F"
Ag      -0.00000000      -0.94980317       2.23197516      -0.40891916      -0.00000000      -0.23480752       0.32247533
Ag      -0.00000000       1.52919792      -1.88634965      -0.41037332      -0.00000000       0.14221866      -0.33430461
Ag      -0.00000000      -0.57939475      -0.34562651      -0.18070751       0.00000000       0.09258885       0.01182928
3
Properties=species:S:1:pos:R:3:initial_charges:R:1:forces:R:3 total_charge=-1.0 energy=-439160.1644405848 pbc="F F F"
Ag      -0.00000000      -1.54275209       1.53153539      -0.43117173      -0.00000000      -0.02134324       0.29013530
Ag      -0.00000000       0.63655377      -2.02243446      -0.40403408      -0.00000000       0.17777119      -0.89569127
Ag      -0.00000000       0.90619832       0.49089807      -0.16479419      -0.00000000      -0.15642795       0.60555597
3
Properties=species:S:1:pos:R:3:initial_charges:R:1:forces:R:3 total_charge=-1.0 energy=-439160.26914727845 pbc="F F F"
Ag      -0.00000000      -1.54553855       1.67658521      -0.39124554      -0.00000000      -0.21094888       0.38730925
Ag      -0.00000000       0.73234856      -2.26170144      -0.43919326      -0.00000000       0.25140860       0.40079921
Ag      -0.00000000       0.81318999       0.58511523      -0.16956119      -0.00000000      -0.04045972      -0.78810847
3
Properties=species:S:1:pos:R:3:initial_charges:R:1:forces:R:3 total_charge=1.0 energy=-439152.76209993754 pbc="F F F"
Ag       0.00000000      -0.03553058       1.67741031       0.33990070      -0.00000000       0.11326185      -0.78094217
Ag       0.00000000       1.42390780      -0.90926033       0.34315185      -0.00000000      -0.65170951       0.50686402
Ag       0.00000000      -1.38837722      -0.76815097       0.31694744      -0.00000000       0.53844766       0.27407814
3
Properties=species:S:1:pos:R:3:initial_charges:R:1:forces:R:3 total_charge=-1.0 energy=-439160.4836682429 pbc="F F F"
Ag      -0.00000000      -1.51942004       1.83867317      -0.41507612       0.00000000      -0.11806689       0.32376105
Ag      -0.00000000       0.87453263      -2.20114021      -0.40677900      -0.00000000       0.25122353      -0.51214191
Ag      -0.00000000       0.64488741       0.36246604      -0.17814487      -0.00000000      -0.13315664       0.18838086
